
 displacements (vx,vy,vz) for set NALL and time  0.1000000E+00

         2  0.000000E+00  0.000000E+00  0.000000E+00
        10  1.362336E-05  0.000000E+00  0.000000E+00
        11  6.811680E-06 -1.910456E-20  0.000000E+00
        12 -3.532180E-20 -6.811680E-06  0.000000E+00
        13 -1.084136E-19 -1.362336E-05  0.000000E+00
        33  2.511267E-19 -5.102365E-20  3.952214E-05
        34  9.139089E-19 -1.350625E-19  7.904427E-05
        93  1.362336E-05 -6.811680E-06  0.000000E+00
        95  1.362336E-05 -1.362336E-05  0.000000E+00
        96  6.811680E-06 -1.362336E-05  0.000000E+00
       103  1.362336E-05 -7.105036E-20  3.952214E-05
       105  1.362336E-05 -2.077439E-19  7.904427E-05
       106  6.811680E-06 -1.737070E-19  7.904427E-05
       132  1.216454E-19 -1.362336E-05  3.952214E-05
       133  8.654286E-19 -6.811680E-06  7.904427E-05
       134  7.839641E-19 -1.362336E-05  7.904427E-05
       219  1.362336E-05 -1.362336E-05  3.952214E-05
       220  1.362336E-05 -6.811680E-06  7.904427E-05
       222  1.362336E-05 -1.362336E-05  7.904427E-05
       223  6.811680E-06 -1.362336E-05  7.904427E-05

 forces (fx,fy,fz) for set NALL and time  0.1000000E+00

         2 -9.091450E-06  9.091450E-06  4.166353E-01
        10  9.091450E-06  9.091450E-06  4.166353E-01
        11  4.907147E-17 -3.636580E-05 -1.666541E+00
        12  3.636580E-05  2.268641E-16 -1.666541E+00
        13 -9.091450E-06 -9.091450E-06  4.166353E-01
        33  3.636580E-05 -3.636580E-05 -1.930388E-17
        34 -9.091450E-06  9.091450E-06 -4.166353E-01
        93 -3.636580E-05  2.988633E-16 -1.666541E+00
        95  9.091450E-06 -9.091450E-06  4.166353E-01
        96  1.164360E-17  3.636580E-05 -1.666541E+00
       103 -3.636580E-05 -3.636580E-05  5.850223E-16
       105  9.091450E-06  9.091450E-06 -4.166353E-01
       106  5.619991E-16 -3.636580E-05  1.666541E+00
       132  3.636580E-05  3.636580E-05 -1.999167E-16
       133  3.636580E-05 -2.397668E-16  1.666541E+00
       134 -9.091450E-06 -9.091450E-06 -4.166353E-01
       219 -3.636580E-05  3.636580E-05  4.314447E-17
       220 -3.636580E-05 -1.137673E-15  1.666541E+00
       222  9.091450E-06 -9.091450E-06 -4.166353E-01
       223  1.077142E-15  3.636580E-05  1.666541E+00

 stresses (elem, integ.pnt.,sxx,syy,szz,sxy,sxz,syz) for set EALL and time  0.1000000E+00

         1   1  2.181835E-04  2.181835E-04  1.999958E+01  1.498041E-15  3.066399E-15 -4.729133E-15
         1   2  2.181835E-04  2.181835E-04  1.999958E+01  8.488899E-16  3.965533E-15 -3.763381E-15
         1   3  2.181835E-04  2.181835E-04  1.999958E+01  6.974213E-15  5.464031E-15 -3.805013E-15
         1   4  2.181835E-04  2.181835E-04  1.999958E+01  1.331592E-16  1.867426E-15 -1.598763E-15
         1   5  2.181835E-04  2.181835E-04  1.999958E+01  1.065274E-15  2.799955E-15 -2.797549E-15
         1   6  2.181835E-04  2.181835E-04  1.999958E+01  4.277740E-15  2.167300E-15 -2.398046E-15
         1   7  2.181835E-04  2.181835E-04  1.999958E+01 -1.331592E-16  2.133761E-15  2.661384E-16
         1   8  2.181835E-04  2.181835E-04  1.999958E+01  1.265012E-15  1.601051E-15 -1.598842E-15
         1   9  2.181835E-04  2.181835E-04  1.999958E+01 -9.820492E-16  8.686476E-16 -1.865187E-15
         1  10  2.181835E-04  2.181835E-04  1.999958E+01 -3.262401E-15  1.090269E-15 -5.792208E-15
         1  11  2.181835E-04  2.181835E-04  1.999958E+01 -1.431461E-15  9.655762E-16  4.959281E-16
         1  12  2.181835E-04  2.181835E-04  1.999958E+01  2.996082E-16  5.733830E-15 -1.942471E-15
         1  13  2.181835E-04  2.181835E-04  1.999958E+01 -1.331592E-15  4.005920E-15 -2.332547E-15
         1  14  2.181835E-04  2.181835E-04  1.999958E+01 -6.657960E-16 -1.388026E-15 -2.032751E-15
         1  15  2.181835E-04  2.181835E-04  1.999958E+01  3.328980E-17  2.141492E-15 -4.067396E-15
         1  16  2.181835E-04  2.181835E-04  1.999958E+01  1.331592E-15  1.948741E-15 -2.202593E-15
         1  17  2.181835E-04  2.181835E-04  1.999958E+01  2.663184E-16 -3.907861E-15 -5.024087E-15
         1  18  2.181835E-04  2.181835E-04  1.999958E+01 -3.495429E-15 -4.179924E-15 -1.003373E-15
         1  19  2.181835E-04  2.181835E-04  1.999958E+01  1.331592E-16  1.057292E-14  1.131768E-14
         1  20  2.181835E-04  2.181835E-04  1.999958E+01  1.714425E-15  9.507706E-15 -1.900609E-15
         1  21  2.181835E-04  2.181835E-04  1.999958E+01  1.864229E-15  1.212122E-14  4.584341E-15
         1  22  2.181835E-04  2.181835E-04  1.999958E+01  1.131853E-15  2.681658E-15  7.962062E-16
         1  23  2.181835E-04  2.181835E-04  1.999958E+01  7.989552E-16  5.212280E-15 -2.642754E-18
         1  24  2.181835E-04  2.181835E-04  1.999958E+01  1.697780E-15 -1.014212E-15 -5.030353E-15
         1  25  2.181835E-04  2.181835E-04  1.999958E+01  2.130547E-15  9.874099E-15 -6.662137E-15
         1  26  2.181835E-04  2.181835E-04  1.999958E+01  2.663184E-16 -2.112974E-15 -7.194926E-15
         1  27  2.181835E-04  2.181835E-04  1.999958E+01  8.322450E-16 -3.045188E-15 -7.528023E-15

 displacements (vx,vy,vz) for set NALL and time  0.2000000E+00

         2  0.000000E+00  0.000000E+00  0.000000E+00
        10  2.161428E-05  0.000000E+00  0.000000E+00
        11  1.080714E-05  1.944536E-20  0.000000E+00
        12  3.420814E-20 -1.080714E-05  0.000000E+00
        13  2.008529E-20 -2.161428E-05  0.000000E+00
        33  1.802999E-19  6.921825E-20  5.550111E-05
        34  5.624500E-19  2.334477E-19  1.110022E-04
        93  2.161428E-05 -1.080714E-05  0.000000E+00
        95  2.161428E-05 -2.161428E-05  0.000000E+00
        96  1.080714E-05 -2.161428E-05  0.000000E+00
       103  2.161428E-05  8.874637E-20  5.550111E-05
       105  2.161428E-05  2.385664E-19  1.110022E-04
       106  1.080714E-05  2.323950E-19  1.110022E-04
       132  1.546932E-19 -2.161428E-05  5.550111E-05
       133  5.675692E-19 -1.080714E-05  1.110022E-04
       134  5.647674E-19 -2.161428E-05  1.110022E-04
       219  2.161428E-05 -2.161428E-05  5.550111E-05
       220  2.161428E-05 -1.080714E-05  1.110022E-04
       222  2.161428E-05 -2.161428E-05  1.110022E-04
       223  1.080714E-05 -2.161428E-05  1.110022E-04

 forces (fx,fy,fz) for set NALL and time  0.2000000E+00

         2 -8.162304E-06  8.162304E-06  4.166228E-01
        10  8.162304E-06  8.162304E-06  4.166228E-01
        11  3.018275E-16 -3.264922E-05 -1.666491E+00
        12  3.264922E-05 -4.842049E-16 -1.666491E+00
        13 -8.162304E-06 -8.162304E-06  4.166228E-01
        33  3.264922E-05 -3.264922E-05 -1.275509E-16
        34 -8.162304E-06  8.162304E-06 -4.166228E-01
        93 -3.264922E-05 -7.096462E-16 -1.666491E+00
        95  8.162304E-06 -8.162304E-06  4.166228E-01
        96  3.652388E-16  3.264922E-05 -1.666491E+00
       103 -3.264922E-05 -3.264922E-05  3.126166E-16
       105  8.162304E-06  8.162304E-06 -4.166228E-01
       106 -1.710446E-16 -3.264922E-05  1.666491E+00
       132  3.264922E-05  3.264922E-05 -6.434164E-16
       133  3.264922E-05 -5.151114E-16  1.666491E+00
       134 -8.162304E-06 -8.162304E-06 -4.166228E-01
       219 -3.264922E-05  3.264922E-05  3.165332E-16
       220 -3.264922E-05 -8.059796E-16  1.666491E+00
       222  8.162304E-06 -8.162304E-06 -4.166228E-01
       223  1.279939E-16  3.264922E-05  1.666491E+00

 stresses (elem, integ.pnt.,sxx,syy,szz,sxy,sxz,syz) for set EALL and time  0.2000000E+00

         1   1  1.958820E-04  1.958820E-04  1.999963E+01  5.593956E-15  2.310189E-15  7.178771E-15
         1   2  1.958820E-04  1.958820E-04  1.999963E+01  1.177982E-15  2.570818E-15  2.918091E-15
         1   3  1.958820E-04  1.958820E-04  1.999963E+01  4.760619E-15  5.527872E-15  2.159420E-15
         1   4  1.958820E-04  1.958820E-04  1.999963E+01  3.278909E-15  4.360909E-15  6.997617E-15
         1   5  1.958820E-04  1.958820E-04  1.999963E+01  1.462586E-15  2.410761E-15  3.453225E-15
         1   6  1.958820E-04  1.958820E-04  1.999963E+01  1.482912E-15  2.482872E-15  1.537333E-15
         1   7  1.958820E-04  1.958820E-04  1.999963E+01 -2.346754E-15  3.461284E-15  5.228789E-15
         1   8  1.958820E-04  1.958820E-04  1.999963E+01  1.786757E-15  2.330015E-15  4.066848E-15
         1   9  1.958820E-04  1.958820E-04  1.999963E+01  2.704658E-16  9.410646E-16  1.769371E-15
         1  10  1.958820E-04  1.958820E-04  1.999963E+01 -1.965679E-15  1.808431E-15  5.734266E-15
         1  11  1.958820E-04  1.958820E-04  1.999963E+01 -7.918330E-16  1.453476E-15 -4.758450E-15
         1  12  1.958820E-04  1.958820E-04  1.999963E+01 -3.508692E-15  5.482488E-15  4.722197E-15
         1  13  1.958820E-04  1.958820E-04  1.999963E+01 -5.631647E-16  3.561733E-15  5.809135E-15
         1  14  1.958820E-04  1.958820E-04  1.999963E+01 -2.815823E-16  1.067212E-15 -1.563718E-15
         1  15  1.958820E-04  1.958820E-04  1.999963E+01 -1.144456E-15  1.358251E-16 -1.798289E-15
         1  16  1.958820E-04  1.958820E-04  1.999963E+01  3.226465E-15 -2.017150E-15  2.144412E-15
         1  17  1.958820E-04  1.958820E-04  1.999963E+01 -8.994211E-16 -1.885342E-16 -1.072425E-15
         1  18  1.958820E-04  1.958820E-04  1.999963E+01 -4.274772E-15  4.740635E-15 -1.801916E-15
         1  19  1.958820E-04  1.958820E-04  1.999963E+01  2.161145E-16  1.807627E-14  1.158386E-14
         1  20  1.958820E-04  1.958820E-04  1.999963E+01  3.148677E-15  5.424267E-15  1.100788E-14
         1  21  1.958820E-04  1.958820E-04  1.999963E+01  2.226613E-15 -1.202101E-14  1.188451E-14
         1  22  1.958820E-04  1.958820E-04  1.999963E+01  2.635963E-15  7.269747E-17  1.088998E-14
         1  23  1.958820E-04  1.958820E-04  1.999963E+01  1.030357E-15  3.381071E-15  3.465443E-15
         1  24  1.958820E-04  1.958820E-04  1.999963E+01  2.655586E-15  5.343217E-16  3.330183E-15
         1  25  1.958820E-04  1.958820E-04  1.999963E+01  2.658841E-15  4.820405E-15  1.476868E-14
         1  26  1.958820E-04  1.958820E-04  1.999963E+01 -2.335961E-16  8.155778E-16  5.833302E-16
         1  27  1.958820E-04  1.958820E-04  1.999963E+01  2.382744E-15  6.762207E-15 -5.485656E-15

 displacements (vx,vy,vz) for set NALL and time  0.3500000E+00

         2  0.000000E+00  0.000000E+00  0.000000E+00
        10  3.359709E-05  0.000000E+00  0.000000E+00
        11  1.679855E-05 -2.332159E-20  0.000000E+00
        12 -1.691433E-20 -1.679855E-05  0.000000E+00
        13 -6.704219E-20 -3.359709E-05  0.000000E+00
        33  1.825232E-19 -2.044604E-19  7.946099E-05
        34  5.912610E-19 -6.894849E-19  1.589220E-04
        93  3.359709E-05 -1.679855E-05  0.000000E+00
        95  3.359709E-05 -3.359709E-05  0.000000E+00
        96  1.679855E-05 -3.359709E-05  0.000000E+00
       103  3.359709E-05 -1.755708E-19  7.946099E-05
       105  3.359709E-05 -6.681142E-19  1.589220E-04
       106  1.679855E-05 -7.191572E-19  1.589220E-04
       132  6.026278E-20 -3.359709E-05  7.946099E-05
       133  5.368862E-19 -1.679855E-05  1.589220E-04
       134  5.041160E-19 -3.359709E-05  1.589220E-04
       219  3.359709E-05 -3.359709E-05  7.946099E-05
       220  3.359709E-05 -1.679855E-05  1.589220E-04
       222  3.359709E-05 -3.359709E-05  1.589220E-04
       223  1.679855E-05 -3.359709E-05  1.589220E-04

 forces (fx,fy,fz) for set NALL and time  0.3500000E+00

         2  1.220028E-12 -1.221072E-12  4.166107E-01
        10 -1.222513E-12 -1.221687E-12  4.166107E-01
        11  1.778005E-15  4.886584E-12 -1.666443E+00
        12 -4.886369E-12  3.470330E-16 -1.666443E+00
        13  1.220350E-12  1.221202E-12  4.166107E-01
        33 -4.886081E-12  4.886523E-12 -1.104261E-15
        34  1.220181E-12 -1.221541E-12 -4.166107E-01
        93  4.886870E-12  4.101223E-18 -1.666443E+00
        95 -1.222662E-12  1.221732E-12  4.166107E-01
        96  1.999247E-15 -4.886945E-12 -1.666443E+00
       103  4.886438E-12  4.885881E-12 -1.518641E-15
       105 -1.222962E-12 -1.222268E-12 -4.166107E-01
       106  2.603175E-15  4.885607E-12  1.666443E+00
       132 -4.886185E-12 -4.886421E-12  4.067723E-16
       133 -4.885714E-12  5.091193E-16  1.666443E+00
       134  1.220193E-12  1.220981E-12 -4.166107E-01
       219  4.886707E-12 -4.886010E-12 -7.642617E-16
       220  4.885703E-12  7.345450E-16  1.666443E+00
       222 -1.222751E-12  1.221573E-12 -4.166107E-01
       223  2.387426E-15 -4.885735E-12  1.666443E+00

 stresses (elem, integ.pnt.,sxx,syy,szz,sxy,sxz,syz) for set EALL and time  0.3500000E+00

         1   1 -2.930701E-11 -2.930967E-11  2.000000E+01  2.400003E-15 -2.543487E-15 -2.683096E-15
         1   2 -2.931766E-11 -2.931766E-11  2.000000E+01  2.018093E-15 -1.647300E-16 -5.841874E-15
         1   3 -2.934164E-11 -2.933542E-11  2.000000E+01  9.442465E-15  3.186638E-15 -7.199589E-15
         1   4 -2.931233E-11 -2.931233E-11  2.000000E+01  1.382595E-15  2.959871E-15 -3.506637E-15
         1   5 -2.933098E-11 -2.933098E-11  2.000000E+01  2.671500E-15  1.264743E-15 -1.777668E-15
         1   6 -2.932388E-11 -2.932921E-11  2.000000E+01  4.895114E-15  9.742461E-17 -3.931324E-15
         1   7 -2.928747E-11 -2.928747E-11  2.000000E+01 -2.126524E-15  4.057692E-15  1.843898E-15
         1   8 -2.932921E-11 -2.932743E-11  2.000000E+01  1.384776E-15  9.981029E-16  5.619879E-16
         1   9 -2.933365E-11 -2.933365E-11  2.000000E+01 -6.145554E-16 -2.345623E-16 -8.208713E-17
         1  10 -2.933809E-11 -2.933098E-11  2.000000E+01  7.064229E-16 -9.311788E-16 -8.341315E-15
         1  11 -2.930168E-11 -2.929724E-11  2.000000E+01 -1.031328E-15 -4.025117E-16  8.918962E-15
         1  12 -2.932210E-11 -2.931944E-11  2.000000E+01 -6.066479E-16  7.950210E-15  2.074090E-15
         1  13 -2.928658E-11 -2.929546E-11  2.000000E+01 -7.433899E-16  2.318210E-15 -6.570499E-16
         1  14 -2.931855E-11 -2.931145E-11  2.000000E+01 -1.475953E-16  7.861949E-16 -1.551852E-15
         1  15 -2.932388E-11 -2.931944E-11  2.000000E+01  1.248918E-15  3.156608E-15 -2.227423E-15
         1  16 -2.933187E-11 -2.933010E-11  2.000000E+01  7.948462E-16  9.886682E-15  4.449927E-15
         1  17 -2.932654E-11 -2.932210E-11  2.000000E+01 -2.040160E-15 -1.619745E-15  7.696850E-15
         1  18 -2.929813E-11 -2.928925E-11  2.000000E+01 -2.184707E-15  3.596111E-16  6.344244E-15
         1  19 -2.929013E-11 -2.929635E-11  2.000000E+01 -1.931627E-15 -5.517577E-16 -8.729806E-15
         1  20 -2.932033E-11 -2.932210E-11  2.000000E+01 -4.504667E-16 -2.252365E-15 -1.606629E-14
         1  21 -2.931322E-11 -2.931322E-11  2.000000E+01  1.862560E-17 -9.662718E-16 -6.323183E-15
         1  22 -2.928392E-11 -2.928836E-11  2.000000E+01 -9.713301E-16 -2.199864E-15 -5.741186E-16
         1  23 -2.930168E-11 -2.929901E-11  2.000000E+01 -3.563100E-16 -1.810316E-15 -2.897224E-15
         1  24 -2.934253E-11 -2.933542E-11  2.000000E+01  3.885105E-15 -1.322352E-14 -4.341458E-15
         1  25 -2.929369E-11 -2.930612E-11  2.000000E+01  6.996191E-15  1.634701E-15  9.978995E-15
         1  26 -2.931944E-11 -2.932921E-11  2.000000E+01 -2.139345E-15 -8.536327E-15  1.106156E-14
         1  27 -2.932566E-11 -2.933454E-11  2.000000E+01 -4.037493E-16  7.473524E-15 -3.050188E-15

 displacements (vx,vy,vz) for set NALL and time  0.5750000E+00

         2  0.000000E+00  0.000000E+00  0.000000E+00
        10  5.155853E-05  0.000000E+00  0.000000E+00
        11  2.577927E-05  7.738914E-22  0.000000E+00
        12 -3.017211E-20 -2.577927E-05  0.000000E+00
        13 -1.489108E-19 -5.155853E-05  0.000000E+00
        33  3.569243E-19 -1.701251E-20  1.153720E-04
        34  1.272158E-18 -2.159186E-19  2.307441E-04
        93  5.155853E-05 -2.577927E-05  0.000000E+00
        95  5.155853E-05 -5.155853E-05  0.000000E+00
        96  2.577927E-05 -5.155853E-05  0.000000E+00
       103  5.155853E-05 -2.045733E-20  1.153720E-04
       105  5.155853E-05 -2.324232E-19  2.307441E-04
       106  2.577927E-05 -2.765049E-19  2.307441E-04
       132  1.442575E-19 -5.155853E-05  1.153720E-04
       133  1.175049E-18 -2.577927E-05  2.307441E-04
       134  1.086447E-18 -5.155853E-05  2.307441E-04
       219  5.155853E-05 -5.155853E-05  1.153720E-04
       220  5.155853E-05 -2.577927E-05  2.307441E-04
       222  5.155853E-05 -5.155853E-05  2.307441E-04
       223  2.577927E-05 -5.155853E-05  2.307441E-04

 forces (fx,fy,fz) for set NALL and time  0.5750000E+00

         2 -1.349489E-12  1.348813E-12  4.165807E-01
        10  1.348932E-12  1.348971E-12  4.165807E-01
        11  1.752354E-16 -5.397044E-12 -1.666323E+00
        12  5.397535E-12  8.361964E-16 -1.666323E+00
        13 -1.350257E-12 -1.350091E-12  4.165807E-01
        33  5.397596E-12 -5.397820E-12  2.281043E-16
        34 -1.350129E-12  1.349529E-12 -4.165807E-01
        93 -5.397039E-12 -4.921553E-16 -1.666323E+00
        95  1.348353E-12 -1.349043E-12  4.165807E-01
        96  1.634443E-15  5.397541E-12 -1.666323E+00
       103 -5.397267E-12 -5.397828E-12 -1.094211E-15
       105  1.348012E-12  1.348340E-12 -4.165807E-01
       106  1.933444E-15 -5.396853E-12  1.666323E+00
       132  5.397321E-12  5.397843E-12 -1.450568E-15
       133  5.398201E-12 -5.639318E-16  1.666323E+00
       134 -1.349569E-12 -1.349340E-12 -4.165807E-01
       219 -5.396725E-12  5.397533E-12 -6.739553E-16
       220 -5.398459E-12  1.119882E-15  1.666323E+00
       222  1.348694E-12 -1.349629E-12 -4.165807E-01
       223  5.456936E-16  5.398178E-12  1.666323E+00

 stresses (elem, integ.pnt.,sxx,syy,szz,sxy,sxz,syz) for set EALL and time  0.5750000E+00

         1   1  3.239771E-11  3.239771E-11  2.000000E+01  8.395262E-15 -2.157017E-16  3.483175E-15
         1   2  3.239150E-11  3.239594E-11  2.000000E+01  1.149022E-15  1.290628E-15  6.357343E-15
         1   3  3.238262E-11  3.238706E-11  2.000000E+01  2.098118E-15  1.759846E-15  6.676694E-15
         1   4  3.235776E-11  3.236663E-11  2.000000E+01  2.577403E-15  4.517334E-15  6.486457E-15
         1   5  3.236663E-11  3.236663E-11  2.000000E+01  3.166987E-16  1.805731E-15  4.863407E-15
         1   6  3.238706E-11  3.239150E-11  2.000000E+01 -1.774476E-15 -1.406930E-15  4.358377E-15
         1   7  3.245099E-11  3.244122E-11  2.000000E+01 -3.254663E-15  7.881753E-15  4.404991E-15
         1   8  3.238084E-11  3.238084E-11  2.000000E+01  1.338300E-16  7.866519E-16  3.499270E-15
         1   9  3.233733E-11  3.233733E-11  2.000000E+01 -4.606076E-15 -3.699121E-16  5.944270E-15
         1  10  3.237107E-11  3.238084E-11  2.000000E+01 -1.375671E-15 -4.301989E-15 -1.027070E-15
         1  11  3.236220E-11  3.235332E-11  2.000000E+01 -3.469805E-15 -4.068746E-17 -4.704354E-15
         1  12  3.239150E-11  3.239594E-11  2.000000E+01 -2.112935E-15  3.974267E-15 -3.400562E-15
         1  13  3.240837E-11  3.240393E-11  2.000000E+01  1.858032E-15 -1.368761E-15  3.705169E-15
         1  14  3.237818E-11  3.238262E-11  2.000000E+01  1.023937E-15 -2.561508E-15 -2.074835E-16
         1  15  3.238706E-11  3.239150E-11  2.000000E+01 -9.195837E-16 -1.527969E-16 -2.867986E-15
         1  16  3.234976E-11  3.234976E-11  2.000000E+01  6.493146E-15 -1.062724E-14  1.456279E-15
         1  17  3.235953E-11  3.236486E-11  2.000000E+01 -5.019874E-16 -3.343825E-15 -3.418059E-15
         1  18  3.241103E-11  3.241103E-11  2.000000E+01 -5.406879E-15 -3.159208E-15 -2.497471E-15
         1  19  3.241547E-11  3.240571E-11  2.000000E+01 -4.786599E-16 -1.762067E-14  1.450640E-14
         1  20  3.239150E-11  3.239594E-11  2.000000E+01  2.593167E-15 -4.043630E-17  8.090825E-15
         1  21  3.238972E-11  3.237995E-11  2.000000E+01 -1.053198E-16  1.010739E-14  4.088088E-15
         1  22  3.241991E-11  3.241015E-11  2.000000E+01  2.485729E-15 -1.614495E-14  1.026094E-14
         1  23  3.236663E-11  3.236663E-11  2.000000E+01  2.112107E-16 -3.968893E-16  9.276476E-15
         1  24  3.235332E-11  3.235332E-11  2.000000E+01  1.238140E-15  1.501603E-14  1.029226E-16
         1  25  3.241370E-11  3.239949E-11  2.000000E+01  6.584783E-15 -1.451982E-14 -2.300186E-15
         1  26  3.237551E-11  3.237551E-11  2.000000E+01 -2.723941E-16 -7.233201E-15  7.580476E-15
         1  27  3.242258E-11  3.241814E-11  2.000000E+01 -4.697896E-15  2.721860E-15  7.855524E-16

 displacements (vx,vy,vz) for set NALL and time  0.9125000E+00

         2  0.000000E+00  0.000000E+00  0.000000E+00
        10  7.847291E-05  0.000000E+00  0.000000E+00
        11  3.923646E-05 -8.292631E-21  0.000000E+00
        12 -1.442253E-19 -3.923646E-05  0.000000E+00
        13 -3.708447E-19 -7.847291E-05  0.000000E+00
        33  5.685260E-19 -2.195161E-19  1.691759E-04
        34  2.416901E-18 -8.207452E-19  3.383517E-04
        93  7.847291E-05 -3.923646E-05  0.000000E+00
        95  7.847291E-05 -7.847291E-05  0.000000E+00
        96  3.923646E-05 -7.847291E-05  0.000000E+00
       103  7.847291E-05 -1.863702E-19  1.691759E-04
       105  7.847291E-05 -7.970378E-19  3.383517E-04
       106  3.923646E-05 -9.040191E-19  3.383517E-04
       132  1.994396E-19 -7.847291E-05  1.691759E-04
       133  2.286872E-18 -3.923646E-05  3.383517E-04
       134  2.079467E-18 -7.847291E-05  3.383517E-04
       219  7.847291E-05 -7.847291E-05  1.691759E-04
       220  7.847291E-05 -3.923646E-05  3.383517E-04
       222  7.847291E-05 -7.847291E-05  3.383517E-04
       223  3.923646E-05 -7.847291E-05  3.383517E-04

 forces (fx,fy,fz) for set NALL and time  0.9125000E+00

         2 -2.686601E-13  2.686491E-13  4.165359E-01
        10  2.691905E-13  2.688782E-13  4.165359E-01
        11 -4.438815E-16 -1.073378E-12 -1.666144E+00
        12  1.074270E-12  1.071161E-15 -1.666144E+00
        13 -2.690290E-13 -2.689883E-13  4.165359E-01
        33  1.076068E-12 -1.075880E-12  1.002216E-15
        34 -2.700120E-13  2.710682E-13 -4.165359E-01
        93 -1.074691E-12  4.718863E-16 -1.666144E+00
        95  2.702260E-13 -2.688974E-13  4.165359E-01
        96 -8.546791E-16  1.073636E-12 -1.666144E+00
       103 -1.076517E-12 -1.076165E-12 -1.952068E-15
       105  2.672327E-13  2.680920E-13 -4.165359E-01
       106  2.823582E-15 -1.077582E-12  1.666144E+00
       132  1.076742E-12  1.076053E-12 -2.930300E-15
       133  1.077539E-12 -4.472785E-15  1.666144E+00
       134 -2.674434E-13 -2.663800E-13 -4.165359E-01
       219 -1.076789E-12  1.075967E-12 -2.772559E-15
       220 -1.076963E-12  2.299106E-16  1.666144E+00
       222  2.692667E-13 -2.679389E-13 -4.165359E-01
       223 -1.954351E-15  1.075566E-12  1.666144E+00

 stresses (elem, integ.pnt.,sxx,syy,szz,sxy,sxz,syz) for set EALL and time  0.9125000E+00

         1   1  6.430900E-12  6.422022E-12  2.000000E+01  6.558475E-15 -3.799086E-15 -3.357471E-15
         1   2  6.489500E-12  6.471743E-12  2.000000E+01 -2.926716E-15 -3.725202E-15 -8.957222E-15
         1   3  6.453985E-12  6.453985E-12  2.000000E+01 -3.282680E-15 -1.370708E-15 -8.025030E-15
         1   4  6.400713E-12  6.400713E-12  2.000000E+01 -2.771679E-16 -1.888415E-15 -2.931919E-15
         1   5  6.430900E-12  6.422022E-12  2.000000E+01  8.072303E-16 -2.218347E-15 -7.125956E-15
         1   6  6.453985E-12  6.453985E-12  2.000000E+01  5.427769E-15  3.175533E-17 -3.703068E-15
         1   7  6.506370E-12  6.524128E-12  2.000000E+01 -5.289316E-15 -7.537177E-15 -1.364529E-15
         1   8  6.392722E-12  6.392722E-12  2.000000E+01  5.106414E-15 -5.369156E-15  2.620020E-17
         1   9  6.405152E-12  6.396273E-12  2.000000E+01  4.953452E-15  1.287965E-15 -4.658649E-15
         1  10  6.467303E-12  6.476182E-12  2.000000E+01 -2.632168E-15 -1.434244E-14 -8.605272E-15
         1  11  6.449546E-12  6.439779E-12  2.000000E+01  7.570083E-16  5.576998E-15 -1.691243E-14
         1  12  6.441555E-12  6.431788E-12  2.000000E+01 -7.653516E-16  2.017487E-14 -4.187967E-15
         1  13  6.510809E-12  6.501043E-12  2.000000E+01 -2.482454E-15 -4.428737E-16 -3.848988E-15
         1  14  6.435340E-12  6.435340E-12  2.000000E+01 -7.881343E-16  2.683458E-15 -5.207594E-15
         1  15  6.471743E-12  6.471743E-12  2.000000E+01  1.947455E-15  1.917139E-14 -1.270338E-14
         1  16  6.391834E-12  6.409591E-12  2.000000E+01 -5.176455E-15 -8.619368E-15 -5.473170E-15
         1  17  6.462864E-12  6.462864E-12  2.000000E+01 -7.275910E-16 -1.256623E-15 -1.032090E-15
         1  18  6.530343E-12  6.519688E-12  2.000000E+01  1.666712E-15  1.171349E-14 -5.245947E-15
         1  19  6.476182E-12  6.467303E-12  2.000000E+01 -7.550852E-16 -5.857568E-15 -1.703223E-15
         1  20  6.510809E-12  6.501931E-12  2.000000E+01  4.474073E-15  4.926209E-15 -3.316458E-14
         1  21  6.451322E-12  6.422909E-12  2.000000E+01  7.348039E-15  1.424817E-14 -7.736543E-15
         1  22  6.489500E-12  6.489500E-12  2.000000E+01 -1.572903E-15 -5.019991E-15 -3.813395E-18
         1  23  6.435340E-12  6.435340E-12  2.000000E+01 -6.336499E-16 -4.340891E-15 -2.298931E-15
         1  24  6.427349E-12  6.427349E-12  2.000000E+01  4.907147E-15  1.086683E-14 -9.189698E-15
         1  25  6.493052E-12  6.502819E-12  2.000000E+01  2.166007E-15 -8.144209E-15  1.219017E-14
         1  26  6.458425E-12  6.448658E-12  2.000000E+01 -8.957440E-17 -1.137747E-14  1.093788E-14
         1  27  6.542773E-12  6.542773E-12  2.000000E+01  1.829486E-15  7.103022E-15 -5.657779E-15

 displacements (vx,vy,vz) for set NALL and time  0.1000000E+01

         2  0.000000E+00  0.000000E+00  0.000000E+00
        10  8.544901E-05  0.000000E+00  0.000000E+00
        11  4.272450E-05 -4.550564E-21  0.000000E+00
        12 -1.219694E-19 -4.272450E-05  0.000000E+00
        13 -3.227384E-19 -8.544901E-05  0.000000E+00
        33  6.436245E-19 -9.708054E-20  1.831202E-04
        34  2.563024E-18 -5.787988E-19  3.662403E-04
        93  8.544901E-05 -4.272450E-05  0.000000E+00
        95  8.544901E-05 -8.544901E-05  0.000000E+00
        96  4.272450E-05 -8.544901E-05  0.000000E+00
       103  8.544901E-05 -1.274453E-19  1.831202E-04
       105  8.544901E-05 -5.772369E-19  3.662403E-04
       106  4.272450E-05 -6.920095E-19  3.662403E-04
       132  2.149181E-19 -8.544901E-05  1.831202E-04
       133  2.365361E-18 -4.272450E-05  3.662403E-04
       134  2.086698E-18 -8.544901E-05  3.662403E-04
       219  8.544901E-05 -8.544901E-05  1.831202E-04
       220  8.544901E-05 -4.272450E-05  3.662403E-04
       222  8.544901E-05 -8.544901E-05  3.662403E-04
       223  4.272450E-05 -8.544901E-05  3.662403E-04

 forces (fx,fy,fz) for set NALL and time  0.1000000E+01

         2 -6.271877E-15  3.873200E-15  4.165243E-01
        10  4.341644E-15  4.630636E-15  4.165243E-01
        11  1.847583E-15 -2.012668E-14 -1.666097E+00
        12  2.080796E-14  2.646473E-15 -1.666097E+00
        13 -7.909481E-15 -6.658661E-15  4.165243E-01
        33  2.116851E-14 -1.976110E-14 -5.401190E-17
        34 -6.026064E-15  4.588157E-15 -4.165243E-01
        93 -2.117682E-14  8.443312E-16 -1.666097E+00
        95  4.054334E-15 -5.083326E-15  4.165243E-01
        96  3.483567E-15  2.052010E-14 -1.666097E+00
       103 -2.058770E-14 -2.197483E-14  3.294901E-15
       105  4.540190E-15  4.882808E-15 -4.165243E-01
       106  4.510665E-16 -2.095944E-14  1.666097E+00
       132  2.117581E-14  1.939748E-14  1.650562E-16
       133  2.008525E-14  2.866971E-15  1.666097E+00
       134 -7.440941E-15 -5.470899E-15 -4.165243E-01
       219 -1.930395E-14  2.187954E-14 -9.212483E-16
       220 -2.015130E-14  1.752667E-16  1.666097E+00
       222  3.857902E-15 -5.381011E-15 -4.165243E-01
       223  3.054316E-15  1.911099E-14  1.666097E+00

 stresses (elem, integ.pnt.,sxx,syy,szz,sxy,sxz,syz) for set EALL and time  0.1000000E+01

         1   1  1.340658E-13  1.242995E-13  2.000000E+01 -1.514074E-14 -2.903249E-15 -1.079622E-15
         1   2  1.553743E-13  1.553743E-13  2.000000E+01 -9.603126E-15 -5.794062E-15 -6.144465E-15
         1   3  1.163088E-13  1.260752E-13  2.000000E+01  2.465495E-15  2.811315E-15  6.673692E-15
         1   4  1.305144E-13  1.305144E-13  2.000000E+01  5.969427E-15  7.721040E-15  1.437762E-15
         1   5  1.029910E-13  1.216359E-13  2.000000E+01  5.280279E-16 -3.687877E-15  2.610458E-15
         1   6  1.171966E-13  1.074302E-13  2.000000E+01  5.587179E-17  4.220124E-15  6.668654E-15
         1   7  2.095334E-13  2.095334E-13  2.000000E+01  1.275571E-14  2.906047E-15 -8.956977E-16
         1   8  3.728984E-14  4.705622E-14  2.000000E+01  2.781282E-15  9.664203E-16 -7.821518E-15
         1   9  9.943956E-14  1.092059E-13  2.000000E+01  1.213509E-15 -1.393518E-15 -9.065696E-15
         1  10  1.074302E-13  9.855171E-14  2.000000E+01 -2.001434E-15  1.183038E-14 -9.573078E-15
         1  11  1.118695E-13  1.305144E-13  2.000000E+01  6.366501E-15 -3.853085E-15 -1.078605E-14
         1  12  1.305144E-13  1.118695E-13  2.000000E+01  4.531854E-15  1.853895E-14  6.328762E-16
         1  13  1.908884E-13  1.908884E-13  2.000000E+01 -4.978944E-15 -1.259791E-14 -6.444776E-15
         1  14  1.118695E-13  1.118695E-13  2.000000E+01  3.957731E-15 -3.275061E-15 -1.125252E-14
         1  15  1.305144E-13  1.118695E-13  2.000000E+01  5.747292E-15  3.314590E-15  1.373433E-14
         1  16  9.766386E-14  1.260752E-13  2.000000E+01  5.560218E-15  1.504721E-14 -2.890160E-14
         1  17  8.523391E-14  8.523391E-14  2.000000E+01 -4.759435E-16  8.653810E-15 -8.124753E-15
         1  18  1.651407E-13  1.651407E-13  2.000000E+01 -6.178688E-15  1.125100E-14  2.817461E-14
         1  19  8.168250E-14  9.056103E-14  2.000000E+01 -1.612264E-15 -8.716636E-15  2.238252E-14
         1  20  1.429444E-13  1.527108E-13  2.000000E+01  3.485925E-15 -5.860927E-15  9.585787E-16
         1  21  1.615893E-13  1.518229E-13  2.000000E+01  4.177805E-15  4.483066E-16  1.871613E-14
         1  22  1.731314E-13  1.731314E-13  2.000000E+01  1.766827E-15 -1.033254E-15 -3.374213E-15
         1  23  9.411244E-14  1.127574E-13  2.000000E+01  6.854607E-15 -1.178396E-14 -7.115037E-15
         1  24  6.836470E-14  8.612177E-14  2.000000E+01  4.258482E-15 -4.535412E-14  7.965602E-15
         1  25  1.225237E-13  1.038788E-13  2.000000E+01 -8.648178E-15  1.403665E-15 -3.234061E-14
         1  26  9.943956E-14  1.092059E-13  2.000000E+01 -2.295233E-15 -5.188812E-15 -2.756448E-14
         1  27  1.029910E-13  1.029910E-13  2.000000E+01  9.654200E-15 -1.548903E-14  6.527097E-14
