
 displacements (vx,vy,vz) for set NALL and time  0.1000000E+01

         1  7.335299E-01  0.000000E+00  0.000000E+00
         2  7.335299E-01  1.040397E+00  0.000000E+00
         3  6.831665E-01  1.040599E+00  0.000000E+00
         4  6.831665E-01 -2.025869E-04  0.000000E+00
         5  7.329245E-01  5.201984E-01  0.000000E+00
         6  7.033538E-01  1.040490E+00  0.000000E+00
         7  6.826163E-01  5.201984E-01  0.000000E+00
         8  7.033538E-01 -9.340047E-05  0.000000E+00
         9  6.645556E-08  0.000000E+00  0.000000E+00
        10  6.645556E-08  1.300000E-01  0.000000E+00
        11  6.645556E-08  0.000000E+00  0.000000E+00
        12  6.645556E-08  1.265687E-01  0.000000E+00
        13  6.645556E-08  0.000000E+00  0.000000E+00

 stresses (elem, integ.pnt.,sxx,syy,szz,sxy,sxz,syz) for set ETUBE and time  0.1000000E+01

         1   1 -1.029226E-01 -4.515910E-03  1.614649E+00 -1.096320E-04  2.325277E-02  1.478240E-06
         1   2 -1.029694E-01 -4.651229E-03  1.613290E+00 -4.807661E-15  2.323898E-02  9.356197E-15
         1   3 -1.029226E-01 -4.515910E-03  1.614649E+00  1.096320E-04  2.325277E-02 -1.478240E-06
         1   4 -6.483523E-02 -3.257002E-03  1.370538E+00 -1.654635E-04  1.946682E-02  2.226403E-06
         1   5 -6.484411E-02 -3.359491E-03  1.369464E+00 -5.846914E-15  1.945581E-02 -1.391932E-14
         1   6 -6.483523E-02 -3.257002E-03  1.370538E+00  1.654635E-04  1.946682E-02 -2.226403E-06
         1   7 -5.917302E-03  8.112975E-03  1.207829E+00 -2.375801E-04  1.643467E-02  3.206714E-06
         1   8 -5.883479E-03  8.037543E-03  1.206968E+00 -6.250954E-15  1.642556E-02  9.880914E-16
         1   9 -5.917302E-03  8.112975E-03  1.207829E+00  2.375801E-04  1.643467E-02 -3.206714E-06
         1  10 -1.032316E-01 -4.512444E-03  1.614961E+00 -1.096515E-04 -8.641021E-16  8.793596E-17
         1  11 -1.032783E-01 -4.647808E-03  1.613601E+00 -5.324200E-15  2.095019E-15  2.116616E-15
         1  12 -1.032316E-01 -4.512444E-03  1.614961E+00  1.096515E-04  4.544261E-18 -1.608944E-15
         1  13 -6.509972E-02 -3.257577E-03  1.370798E+00 -1.654855E-04 -1.953052E-18  7.990048E-17
         1  14 -6.510854E-02 -3.360108E-03  1.369724E+00 -5.455857E-15  3.878921E-18  1.571527E-15
         1  15 -6.509972E-02 -3.257577E-03  1.370798E+00  1.654855E-04  7.919628E-16  5.303957E-16
         1  16 -6.148756E-03  8.108928E-03  1.208049E+00 -2.376046E-04  1.530505E-15 -1.092688E-16
         1  17 -6.114899E-03  8.033459E-03  1.207187E+00 -6.882288E-15 -4.215754E-15  1.817901E-15
         1  18 -6.148756E-03  8.108928E-03  1.208049E+00  2.376046E-04 -7.875528E-16 -1.328928E-16
         1  19 -1.029226E-01 -4.515910E-03  1.614649E+00 -1.096320E-04 -2.325277E-02 -1.478240E-06
         1  20 -1.029694E-01 -4.651229E-03  1.613290E+00 -4.196964E-15 -2.323898E-02 -2.441080E-14
         1  21 -1.029226E-01 -4.515910E-03  1.614649E+00  1.096320E-04 -2.325277E-02  1.478240E-06
         1  22 -6.483523E-02 -3.257002E-03  1.370538E+00 -1.654635E-04 -1.946682E-02 -2.226403E-06
         1  23 -6.484411E-02 -3.359491E-03  1.369464E+00 -5.520229E-15 -1.945581E-02 -1.310381E-14
         1  24 -6.483523E-02 -3.257002E-03  1.370538E+00  1.654635E-04 -1.946682E-02  2.226403E-06
         1  25 -5.917302E-03  8.112975E-03  1.207829E+00 -2.375801E-04 -1.643467E-02 -3.206714E-06
         1  26 -5.883479E-03  8.037543E-03  1.206968E+00 -5.946360E-15 -1.642556E-02 -9.970839E-16
         1  27 -5.917302E-03  8.112975E-03  1.207829E+00  2.375801E-04 -1.643467E-02  3.206714E-06
