
 stresses (elem, integ.pnt.,sxx,syy,szz,sxy,sxz,syz) for set EALL and time  0.1000000E+01

         1   1  1.594496E-02 -3.844509E-03  2.395088E-02 -3.449158E-05  1.143153E-04  4.701900E-07
         1   2  1.124892E-02 -6.188448E-03  2.083379E-02 -6.146162E-11  1.408924E-04  8.307221E-13
         1   3  1.594496E-02 -3.844509E-03  2.395088E-02  3.449156E-05  1.143153E-04 -4.701898E-07
         1   4  1.172864E-02  2.090739E-03  2.808752E-02 -5.608118E-04  2.309556E-04  7.583410E-06
         1   5  7.338480E-03  5.267352E-05  2.568413E-02 -8.021176E-11  2.602896E-04  1.084239E-12
         1   6  1.172864E-02  2.090739E-03  2.808752E-02  5.608117E-04  2.309556E-04 -7.583409E-06
         1   7  6.103195E-03  8.586355E-04  3.469256E-02 -1.087132E-03  3.894890E-04  1.469662E-05
         1   8  2.231834E-03 -6.606276E-04  3.349971E-02 -4.669000E-11  4.234991E-04  6.310200E-13
         1   9  6.103195E-03  8.586354E-04  3.469256E-02  1.087132E-03  3.894890E-04 -1.469662E-05
         1  10  1.594257E-02 -3.844906E-03  2.395194E-02 -3.415062E-05  3.420711E-17  2.129593E-18
         1  11  1.124637E-02 -6.188790E-03  2.083520E-02 -6.146564E-11 -3.420711E-17  1.068972E-18
         1  12  1.594257E-02 -3.844906E-03  2.395194E-02  3.415061E-05 -4.184024E-18  3.181862E-18
         1  13  1.172544E-02  2.090649E-03  2.809042E-02 -5.607339E-04  3.420711E-17  3.340514E-20
         1  14  7.335175E-03  5.269466E-05  2.568751E-02 -8.021510E-11 -6.839752E-17  6.767282E-32
         1  15  1.172544E-02  2.090649E-03  2.809042E-02  5.607338E-04  2.565376E-17  4.676755E-19
         1  16  6.098973E-03  8.590660E-04  3.469822E-02 -1.087317E-03  1.710356E-17  2.246512E-18
         1  17  2.227603E-03 -6.599910E-04  3.350606E-02 -4.669266E-11 -2.572215E-17  1.589711E-32
         1  18  6.098973E-03  8.590660E-04  3.469822E-02  1.087317E-03  1.483199E-17 -4.042051E-18
         1  19  1.594496E-02 -3.844509E-03  2.395088E-02 -3.449158E-05 -1.143153E-04 -4.701900E-07
         1  20  1.124892E-02 -6.188448E-03  2.083379E-02 -6.146162E-11 -1.408924E-04 -8.307221E-13
         1  21  1.594496E-02 -3.844509E-03  2.395088E-02  3.449156E-05 -1.143153E-04  4.701898E-07
         1  22  1.172864E-02  2.090739E-03  2.808752E-02 -5.608118E-04 -2.309556E-04 -7.583410E-06
         1  23  7.338480E-03  5.267352E-05  2.568413E-02 -8.021176E-11 -2.602896E-04 -1.084239E-12
         1  24  1.172864E-02  2.090739E-03  2.808752E-02  5.608117E-04 -2.309556E-04  7.583409E-06
         1  25  6.103195E-03  8.586355E-04  3.469256E-02 -1.087132E-03 -3.894890E-04 -1.469662E-05
         1  26  2.231834E-03 -6.606276E-04  3.349971E-02 -4.669000E-11 -4.234991E-04 -6.310029E-13
         1  27  6.103195E-03  8.586354E-04  3.469256E-02  1.087132E-03 -3.894890E-04  1.469662E-05
         2   1  1.017101E+02 -5.083598E-01  8.307449E-05 -4.001354E+00  1.519514E-05 -2.921132E-06
         2   2  1.007026E+02 -8.103449E-01 -1.038100E-04 -3.011381E-07  1.519391E-05  9.699052E-11
         2   3  1.017101E+02 -5.083601E-01  8.307460E-05  4.001353E+00  1.519346E-05  2.921792E-06
         2   4  9.886956E+01  1.054757E+00 -1.038115E-04  3.329895E+00 -1.235109E-05 -2.926489E-06
         2   5  9.786227E+01  7.528059E-01  1.297947E-04 -2.648504E-07 -1.234405E-05 -1.445135E-11
         2   6  9.886956E+01  1.054757E+00 -1.038114E-04 -3.329895E+00 -1.235090E-05  2.927124E-06
         2   7  1.017034E+02  2.152485E+01  8.306650E-05  1.066279E+01 -3.988805E-05 -2.941668E-06
         2   8  1.006942E+02  2.121970E+01 -1.038047E-04 -3.839349E-07 -3.988442E-05  1.296992E-10
         2   9  1.017034E+02  2.152485E+01  8.306663E-05 -1.066279E+01 -3.988833E-05  2.941824E-06
         2  10  1.017101E+02 -5.083598E-01  8.307449E-05 -4.001354E+00  4.430312E-11  3.319614E-09
         2  11  1.007026E+02 -8.103449E-01 -1.038100E-04 -3.011381E-07  7.716518E-10  2.251213E-11
         2  12  1.017101E+02 -5.083601E-01  8.307460E-05  4.001353E+00  3.459806E-11 -3.261152E-09
         2  13  9.886956E+01  1.054757E+00 -1.038115E-04  3.329895E+00  2.427658E-10  1.766919E-09
         2  14  9.786227E+01  7.528059E-01  1.297947E-04 -2.648504E-07  1.324577E-09  5.628241E-11
         2  15  9.886956E+01  1.054757E+00 -1.038114E-04 -3.329895E+00  1.032354E-09 -1.699196E-09
         2  16  1.017034E+02  2.152485E+01  8.306650E-05  1.066279E+01  8.715209E-10  1.467699E-10
         2  17  1.006942E+02  2.121970E+01 -1.038047E-04 -3.839349E-07  2.092684E-09  4.044384E-11
         2  18  1.017034E+02  2.152485E+01  8.306663E-05 -1.066279E+01  1.186258E-09 -9.731177E-11
         2  19  1.017101E+02 -5.083598E-01  8.307449E-05 -4.001354E+00 -1.519275E-05  2.927771E-06
         2  20  1.007026E+02 -8.103449E-01 -1.038100E-04 -3.011381E-07 -1.519237E-05 -5.196625E-11
         2  21  1.017101E+02 -5.083601E-01  8.307460E-05  4.001353E+00 -1.519134E-05 -2.928341E-06
         2  22  9.886956E+01  1.054757E+00 -1.038115E-04  3.329895E+00  1.235215E-05  2.929736E-06
         2  23  9.786227E+01  7.528059E-01  1.297947E-04 -2.648504E-07  1.234670E-05  1.270162E-10
         2  24  9.886956E+01  1.054757E+00 -1.038114E-04 -3.329895E+00  1.235196E-05 -2.930145E-06
         2  25  1.017034E+02  2.152485E+01  8.306650E-05  1.066279E+01  3.989037E-05  2.941872E-06
         2  26  1.006942E+02  2.121970E+01 -1.038047E-04 -3.839349E-07  3.988817E-05 -6.673709E-11
         2  27  1.017034E+02  2.152485E+01  8.306663E-05 -1.066279E+01  3.989034E-05 -2.941992E-06

 strains (elem, integ.pnt.,exx,eyy,ezz,exy,exz,eyz) forset EALL and time  0.1000000E+01

         1   1  4.720499E-08 -7.530123E-08  9.676543E-08 -2.135250E-10  7.076656E-10  2.910775E-12
         1   2  3.264438E-08 -7.530124E-08  9.197925E-08 -3.804751E-16  8.721907E-10  5.142545E-18
         1   3  4.720499E-08 -7.530124E-08  9.676543E-08  2.135249E-10  7.076657E-10 -2.910774E-12
         1   4  1.273890E-08 -4.692433E-08  1.140081E-07 -3.471693E-09  1.429725E-09  4.694493E-11
         1   5 -1.821716E-09 -4.692433E-08  1.117466E-07 -4.965484E-16  1.611316E-09  6.711950E-18
         1   6  1.273889E-08 -4.692433E-08  1.140081E-07  3.471693E-09  1.429725E-09 -4.694492E-11
         1   7 -2.172457E-08 -5.419090E-08  1.552571E-07 -6.729863E-09  2.411121E-09  9.097910E-11
         1   8 -3.628518E-08 -5.419090E-08  1.572778E-07 -2.890331E-16  2.621660E-09  3.906311E-18
         1   9 -2.172457E-08 -5.419090E-08  1.552572E-07  6.729862E-09  2.411122E-09 -9.097910E-11
         1  10  4.719265E-08 -7.530123E-08  9.677449E-08 -2.114143E-10  2.117582E-22  1.318318E-23
         1  11  3.263071E-08 -7.530124E-08  9.199009E-08 -3.805000E-16 -2.117582E-22  6.617444E-24
         1  12  4.719265E-08 -7.530124E-08  9.677449E-08  2.114142E-10 -2.590110E-23  1.969724E-23
         1  13  1.271964E-08 -4.692433E-08  1.140266E-07 -3.471211E-09  2.117582E-22  2.067915E-25
         1  14 -1.842304E-09 -4.692433E-08  1.117673E-07 -4.965690E-16 -4.234131E-22 -6.056097E-36
         1  15  1.271964E-08 -4.692433E-08  1.140266E-07  3.471210E-09  1.588090E-22  2.895135E-24
         1  16 -2.175337E-08 -5.419090E-08  1.552895E-07 -6.731009E-09  1.058791E-22  1.390697E-23
         1  17 -3.631532E-08 -5.419090E-08  1.573132E-07 -2.890496E-16 -1.592323E-22 -2.349872E-36
         1  18 -2.175338E-08 -5.419090E-08  1.552895E-07  6.731008E-09  9.181705E-23 -2.502221E-23
         1  19  4.720499E-08 -7.530123E-08  9.676543E-08 -2.135250E-10 -7.076656E-10 -2.910775E-12
         1  20  3.264438E-08 -7.530124E-08  9.197925E-08 -3.804751E-16 -8.721907E-10 -5.142545E-18
         1  21  4.720499E-08 -7.530124E-08  9.676543E-08  2.135249E-10 -7.076657E-10  2.910774E-12
         1  22  1.273890E-08 -4.692433E-08  1.140081E-07 -3.471693E-09 -1.429725E-09 -4.694493E-11
         1  23 -1.821716E-09 -4.692433E-08  1.117466E-07 -4.965484E-16 -1.611316E-09 -6.711950E-18
         1  24  1.273889E-08 -4.692433E-08  1.140081E-07  3.471693E-09 -1.429725E-09  4.694492E-11
         1  25 -2.172457E-08 -5.419090E-08  1.552571E-07 -6.729863E-09 -2.411121E-09 -9.097910E-11
         1  26 -3.628518E-08 -5.419090E-08  1.572778E-07 -2.890331E-16 -2.621660E-09 -3.906205E-18
         1  27 -2.172457E-08 -5.419090E-08  1.552572E-07  6.729862E-09 -2.411122E-09  9.097910E-11
         2   1  4.846840E-04 -1.476104E-04 -1.444599E-04 -2.474822E-05  9.393176E-11 -1.808465E-11
         2   2  4.803252E-04 -1.476106E-04 -1.425923E-04 -1.853784E-12  9.392660E-11  6.007091E-16
         2   3  4.846841E-04 -1.476104E-04 -1.444599E-04  2.474822E-05  9.392135E-11  1.808874E-11
         2   4  4.689491E-04 -1.361133E-04 -1.426443E-04  2.057867E-05 -7.635479E-11 -1.811746E-11
         2   5  4.645894E-04 -1.361134E-04 -1.407750E-04 -1.632373E-12 -7.631270E-11 -8.950674E-17
         2   6  4.689491E-04 -1.361133E-04 -1.426443E-04 -2.057867E-05 -7.635359E-11  1.812139E-11
         2   7  4.532211E-04 -4.267473E-05 -1.759482E-04  6.591188E-05 -2.466027E-10 -1.814803E-11
         2   8  4.488538E-04 -4.267474E-05 -1.740771E-04 -2.372311E-12 -2.465857E-10  8.032170E-16
         2   9  4.532212E-04 -4.267473E-05 -1.759482E-04 -6.591188E-05 -2.466045E-10  1.814900E-11
         2  10  4.846840E-04 -1.476104E-04 -1.444599E-04 -2.474822E-05  2.752997E-16  2.056010E-14
         2  11  4.803252E-04 -1.476106E-04 -1.425923E-04 -1.853784E-12  4.770242E-15  1.394292E-16
         2  12  4.846841E-04 -1.476104E-04 -1.444599E-04  2.474822E-05  2.162615E-16 -2.019797E-14
         2  13  4.689491E-04 -1.361133E-04 -1.426443E-04  2.057867E-05  1.498297E-15  1.094284E-14
         2  14  4.645894E-04 -1.361134E-04 -1.407750E-04 -1.632373E-12  8.188731E-15  3.485735E-16
         2  15  4.689491E-04 -1.361133E-04 -1.426443E-04 -2.057867E-05  6.385583E-15 -1.052316E-14
         2  16  4.532211E-04 -4.267473E-05 -1.759482E-04  6.591188E-05  5.386882E-15  9.071929E-16
         2  17  4.488538E-04 -4.267474E-05 -1.740771E-04 -2.372311E-12  1.293969E-14  2.504423E-16
         2  18  4.532212E-04 -4.267473E-05 -1.759482E-04 -6.591188E-05  7.334152E-15 -6.005866E-16
         2  19  4.846840E-04 -1.476104E-04 -1.444599E-04 -2.474822E-05 -9.391699E-11  1.812577E-11
         2  20  4.803252E-04 -1.476106E-04 -1.425923E-04 -1.853784E-12 -9.391706E-11 -3.218508E-16
         2  21  4.846841E-04 -1.476104E-04 -1.444599E-04  2.474822E-05 -9.390826E-11 -1.812930E-11
         2  22  4.689491E-04 -1.361133E-04 -1.426443E-04  2.057867E-05  7.636134E-11  1.813757E-11
         2  23  4.645894E-04 -1.361134E-04 -1.407750E-04 -1.632373E-12  7.632908E-11  7.866538E-16
         2  24  4.689491E-04 -1.361133E-04 -1.426443E-04 -2.057867E-05  7.636014E-11 -1.814011E-11
         2  25  4.532211E-04 -4.267473E-05 -1.759482E-04  6.591188E-05  2.466171E-10  1.814929E-11
         2  26  4.488538E-04 -4.267474E-05 -1.740771E-04 -2.372311E-12  2.466089E-10 -4.133499E-16
         2  27  4.532212E-04 -4.267473E-05 -1.759482E-04 -6.591188E-05  2.466169E-10 -1.815003E-11
