
KNOT2
tra         1  0.0000E+00  0.0000E+00  0.0000E+00
rot        22  0.0000E+00  0.0000E+00  0.0000E+00
exp        23  0.0000E+00 -0.1172E-04 -0.1172E-04

KNOT2
tra         2  0.8245E-04 -0.1013E-14  0.1739E-03
rot        56  0.2214E-16 -0.3480E-03 -0.2042E-14
exp        57  0.0000E+00 -0.1172E-04 -0.1172E-04

KNOT2
tra         3  0.4123E-04 -0.2512E-15  0.4343E-04
rot        90  0.1217E-16 -0.1738E-03 -0.1011E-14
exp        91  0.0000E+00 -0.1172E-04 -0.1172E-04

KNOT2
tra         4  0.1649E-03 -0.3750E-14  0.7005E-03
rot       124 -0.2121E-16 -0.7063E-03 -0.3407E-14
exp       125  0.0000E+00 -0.1172E-04 -0.1172E-04

KNOT2
tra         5  0.1237E-03 -0.2211E-14  0.3924E-03
rot       158 -0.3560E-17 -0.5266E-03 -0.2739E-14
exp       159  0.0000E+00 -0.1172E-04 -0.1172E-04

 displacements (vx,vy,vz) for set NALL and time  0.1000000E+01

         1  0.000000E+00  0.000000E+00  0.000000E+00
         2  8.244530E-05 -1.013063E-15  1.738544E-04
         3  4.122786E-05 -2.511757E-16  4.343237E-05
         4  1.648949E-04 -3.750003E-15  7.005395E-04
         5  1.236867E-04 -2.211003E-15  3.924208E-04

 stresses (elem, integ.pnt.,sxx,syy,szz,sxy,sxz,syz) for set EALL and time  0.1000000E+01

         1   1  1.066270E+01 -2.461649E+00 -2.461692E+00 -2.384946E-05 -4.100012E-03 -9.308660E-10
         1   2  1.065121E+01 -2.465732E+00 -2.465835E+00  5.375286E-07  4.469022E-03  9.362234E-11
         1   3  1.064359E+01 -2.469867E+00 -2.469788E+00  2.492452E-05 -5.097615E-03  7.689294E-09
         1   4  1.370631E+01 -1.157508E+00 -1.157551E+00 -2.385036E-05 -4.063041E-03 -9.309162E-10
         1   5  1.369990E+01 -1.159415E+00 -1.159517E+00  5.375488E-07  4.770382E-03  9.317094E-11
         1   6  1.369735E+01 -1.161373E+00 -1.161294E+00  2.492546E-05 -4.531964E-03  7.688463E-09
         1   7  1.675002E+01  1.466193E-01  1.465759E-01 -2.385126E-05 -4.026068E-03 -9.309326E-10
         1   8  1.674868E+01  1.468886E-01  1.467858E-01  5.375692E-07  5.071761E-03  9.352501E-11
         1   9  1.675122E+01  1.471062E-01  1.471854E-01  2.492640E-05 -3.966276E-03  7.689192E-09
         1  10  1.066270E+01 -2.461649E+00 -2.461692E+00  2.130335E-13 -4.100012E-03 -1.788048E-15
         1  11  1.065121E+01 -2.465732E+00 -2.465835E+00 -2.600953E-13  4.469022E-03 -2.264368E-14
         1  12  1.064359E+01 -2.469867E+00 -2.469788E+00  1.732877E-13 -5.097615E-03 -3.266019E-14
         1  13  1.370631E+01 -1.157508E+00 -1.157551E+00  2.790667E-13 -4.063041E-03 -1.646993E-14
         1  14  1.369990E+01 -1.159415E+00 -1.159517E+00 -1.846808E-13  4.770382E-03 -5.766138E-14
         1  15  1.369735E+01 -1.161373E+00 -1.161294E+00  2.118582E-13 -4.531964E-03 -5.050929E-14
         1  16  1.675002E+01  1.466193E-01  1.465759E-01  3.463909E-13 -4.026068E-03 -5.803399E-16
         1  17  1.674868E+01  1.468886E-01  1.467858E-01 -1.447648E-13  5.071761E-03 -2.548195E-14
         1  18  1.675122E+01  1.471062E-01  1.471854E-01  2.692839E-13 -3.966276E-03 -1.424168E-14
         1  19  1.066270E+01 -2.461649E+00 -2.461692E+00  2.384946E-05 -4.100012E-03  9.308816E-10
         1  20  1.065121E+01 -2.465732E+00 -2.465835E+00 -5.375290E-07  4.469022E-03 -9.337293E-11
         1  21  1.064359E+01 -2.469867E+00 -2.469788E+00 -2.492451E-05 -5.097615E-03 -7.688249E-09
         1  22  1.370631E+01 -1.157508E+00 -1.157551E+00  2.385036E-05 -4.063041E-03  9.308875E-10
         1  23  1.369990E+01 -1.159415E+00 -1.159517E+00 -5.375493E-07  4.770382E-03 -9.361325E-11
         1  24  1.369735E+01 -1.161373E+00 -1.161294E+00 -2.492546E-05 -4.531964E-03 -7.689029E-09
         1  25  1.675002E+01  1.466193E-01  1.465759E-01  2.385126E-05 -4.026068E-03  9.309132E-10
         1  26  1.674868E+01  1.468886E-01  1.467858E-01 -5.375695E-07  5.071761E-03 -9.340688E-11
         1  27  1.675122E+01  1.471062E-01  1.471854E-01 -2.492640E-05 -3.966276E-03 -7.689406E-09
         2   1  1.051283E+01 -2.525863E+00 -2.525933E+00 -2.832558E-05 -1.347805E-02 -1.098116E-08
         2   2  1.048160E+01 -2.538343E+00 -2.538541E+00  2.442483E-06  1.349798E-02  1.287009E-09
         2   3  1.045484E+01 -2.550743E+00 -2.550030E+00  3.321052E-05 -1.445328E-02  2.208765E-08
         2   4  1.363595E+01 -1.187651E+00 -1.187721E+00 -2.832668E-05 -1.280385E-02 -1.098278E-08
         2   5  1.362009E+01 -1.193540E+00 -1.193738E+00  2.442578E-06  1.443104E-02  1.286016E-09
         2   6  1.360872E+01 -1.199349E+00 -1.198636E+00  3.321182E-05 -1.326167E-02  2.208933E-08
         2   7  1.675917E+01  1.505457E-01  1.504765E-01 -2.832777E-05 -1.212961E-02 -1.098256E-08
         2   8  1.675870E+01  1.512482E-01  1.510508E-01  2.442672E-06  1.536416E-02  1.285996E-09
         2   9  1.676270E+01  1.520299E-01  1.527440E-01  3.321311E-05 -1.206998E-02  2.208904E-08
         2  10  1.051283E+01 -2.525863E+00 -2.525933E+00 -2.414061E-13 -1.347805E-02 -7.605372E-16
         2  11  1.048160E+01 -2.538343E+00 -2.538541E+00  4.526837E-13  1.349798E-02 -1.365636E-13
         2  12  1.045484E+01 -2.550743E+00 -2.550030E+00 -3.761513E-13 -1.445328E-02 -1.192278E-13
         2  13  1.363595E+01 -1.187651E+00 -1.187721E+00 -4.113088E-13 -1.280385E-02 -1.477077E-13
         2  14  1.362009E+01 -1.193540E+00 -1.193738E+00  3.341242E-13  1.443104E-02 -1.277870E-13
         2  15  1.360872E+01 -1.199349E+00 -1.198636E+00 -4.306372E-13 -1.326167E-02 -7.466981E-14
         2  16  1.675917E+01  1.505457E-01  1.504765E-01 -5.332241E-13 -1.212961E-02  9.186290E-14
         2  17  1.675870E+01  1.512482E-01  1.510508E-01  1.937962E-13  1.536416E-02  4.769070E-14
         2  18  1.676270E+01  1.520299E-01  1.527440E-01 -4.851777E-13 -1.206998E-02  1.915115E-13
         2  19  1.051283E+01 -2.525863E+00 -2.525933E+00  2.832558E-05 -1.347805E-02  1.098146E-08
         2  20  1.048160E+01 -2.538343E+00 -2.538541E+00 -2.442482E-06  1.349798E-02 -1.286932E-09
         2  21  1.045484E+01 -2.550743E+00 -2.550030E+00 -3.321052E-05 -1.445328E-02 -2.208496E-08
         2  22  1.363595E+01 -1.187651E+00 -1.187721E+00  2.832668E-05 -1.280385E-02  1.098206E-08
         2  23  1.362009E+01 -1.193540E+00 -1.193738E+00 -2.442577E-06  1.443104E-02 -1.286237E-09
         2  24  1.360872E+01 -1.199349E+00 -1.198636E+00 -3.321182E-05 -1.326167E-02 -2.208940E-08
         2  25  1.675917E+01  1.505457E-01  1.504765E-01  2.832777E-05 -1.212961E-02  1.098233E-08
         2  26  1.675870E+01  1.512482E-01  1.510508E-01 -2.442672E-06  1.536416E-02 -1.285901E-09
         2  27  1.676270E+01  1.520299E-01  1.527440E-01 -3.321311E-05 -1.206998E-02 -2.209017E-08
         3   1  9.701720E+00  4.743620E-01  4.743393E-01 -1.249379E-05 -2.097621E-03 -4.876270E-10
         3   2  9.702570E+00  4.751665E-01  4.751127E-01  2.815901E-07  2.748517E-03  4.896301E-11
         3   3  9.705445E+00  4.759439E-01  4.759855E-01  1.305697E-05 -1.905113E-03  4.027946E-09
         3   4  1.129612E+01  1.157464E+00  1.157442E+00 -1.249426E-05 -2.078252E-03 -4.876390E-10
         3   5  1.129963E+01  1.159409E+00  1.159355E+00  2.816007E-07  2.906399E-03  4.897749E-11
         3   6  1.130517E+01  1.161326E+00  1.161368E+00  1.305747E-05 -1.608770E-03  4.027780E-09
         3   7  1.289058E+01  1.840560E+00  1.840537E+00 -1.249473E-05 -2.058883E-03 -4.876463E-10
         3   8  1.289675E+01  1.843644E+00  1.843590E+00  2.816114E-07  3.064290E-03  4.889062E-11
         3   9  1.290495E+01  1.846701E+00  1.846743E+00  1.305796E-05 -1.312407E-03  4.028083E-09
         3  10  9.701720E+00  4.743620E-01  4.743393E-01  1.992623E-13 -2.097621E-03 -2.368042E-15
         3  11  9.702570E+00  4.751665E-01  4.751127E-01 -6.695071E-14  2.748517E-03 -1.900700E-14
         3  12  9.705445E+00  4.759439E-01  4.759855E-01  1.469375E-13 -1.905113E-03 -1.665642E-14
         3  13  1.129612E+01  1.157464E+00  1.157442E+00  2.356007E-13 -2.078252E-03 -2.454926E-15
         3  14  1.129963E+01  1.159409E+00  1.159355E+00 -2.508484E-14  2.906399E-03 -3.488276E-14
         3  15  1.130517E+01  1.161326E+00  1.161368E+00  1.720388E-13 -1.608770E-03 -8.238986E-15
         3  16  1.289058E+01  1.840560E+00  1.840537E+00  2.702176E-13 -2.058883E-03 -9.114016E-15
         3  17  1.289675E+01  1.843644E+00  1.843590E+00 -9.428978E-18  3.064290E-03 -1.458820E-14
         3  18  1.290495E+01  1.846701E+00  1.846743E+00  1.895527E-13 -1.312407E-03 -8.432262E-15
         3  19  9.701720E+00  4.743620E-01  4.743393E-01  1.249379E-05 -2.097621E-03  4.876141E-10
         3  20  9.702570E+00  4.751665E-01  4.751127E-01 -2.815902E-07  2.748517E-03 -4.897004E-11
         3  21  9.705445E+00  4.759439E-01  4.759855E-01 -1.305697E-05 -1.905113E-03 -4.027692E-09
         3  22  1.129612E+01  1.157464E+00  1.157442E+00  1.249426E-05 -2.078252E-03  4.876383E-10
         3  23  1.129963E+01  1.159409E+00  1.159355E+00 -2.816008E-07  2.906399E-03 -4.897033E-11
         3  24  1.130517E+01  1.161326E+00  1.161368E+00 -1.305747E-05 -1.608770E-03 -4.028040E-09
         3  25  1.289058E+01  1.840560E+00  1.840537E+00  1.249473E-05 -2.058883E-03  4.876262E-10
         3  26  1.289675E+01  1.843644E+00  1.843590E+00 -2.816114E-07  3.064290E-03 -4.901190E-11
         3  27  1.290495E+01  1.846701E+00  1.846743E+00 -1.305796E-05 -1.312407E-03 -4.028269E-09
         4   1  9.730758E+00  4.868048E-01  4.867687E-01 -1.483869E-05 -6.148050E-03 -5.752767E-09
         4   2  9.735198E+00  4.891820E-01  4.890788E-01  1.279524E-06  8.332369E-03  6.742597E-10
         4   3  9.741985E+00  4.916007E-01  4.919750E-01  1.739774E-05 -5.959059E-03  1.157024E-08
         4   4  1.136682E+01  1.187753E+00  1.187717E+00 -1.483926E-05 -5.794839E-03 -5.753368E-09
         4   5  1.137932E+01  1.193582E+00  1.193479E+00  1.279574E-06  8.821198E-03  6.740242E-10
         4   6  1.139416E+01  1.199453E+00  1.199828E+00  1.739842E-05 -5.334773E-03  1.157123E-08
         4   7  1.300293E+01  1.888693E+00  1.888657E+00 -1.483984E-05 -5.441605E-03 -5.753401E-09
         4   8  1.302349E+01  1.897975E+00  1.897872E+00  1.279624E-06  9.310059E-03  6.736835E-10
         4   9  1.304639E+01  1.907298E+00  1.907673E+00  1.739910E-05 -4.710445E-03  1.157153E-08
         4  10  9.730758E+00  4.868048E-01  4.867687E-01 -3.375610E-13 -6.148050E-03  8.735591E-15
         4  11  9.735198E+00  4.891820E-01  4.890788E-01  2.946613E-14  8.332369E-03  4.731948E-14
         4  12  9.741985E+00  4.916007E-01  4.919750E-01 -3.157814E-13 -5.959059E-03 -2.242313E-14
         4  13  1.136682E+01  1.187753E+00  1.187717E+00 -4.114863E-13 -5.794839E-03 -4.091915E-14
         4  14  1.137932E+01  1.193582E+00  1.193479E+00  2.063678E-14  8.821198E-03  8.880350E-14
         4  15  1.139416E+01  1.199453E+00  1.199828E+00 -3.287629E-13 -5.334773E-03 -3.431550E-14
         4  16  1.300293E+01  1.888693E+00  1.888657E+00 -4.493532E-13 -5.441605E-03  2.049078E-14
         4  17  1.302349E+01  1.897975E+00  1.897872E+00 -4.210881E-15  9.310059E-03  2.045971E-14
         4  18  1.304639E+01  1.907298E+00  1.907673E+00 -3.642746E-13 -4.710445E-03 -2.006573E-14
         4  19  9.730758E+00  4.868048E-01  4.867687E-01  1.483869E-05 -6.148050E-03  5.753024E-09
         4  20  9.735198E+00  4.891820E-01  4.890788E-01 -1.279524E-06  8.332369E-03 -6.743202E-10
         4  21  9.741985E+00  4.916007E-01  4.919750E-01 -1.739774E-05 -5.959059E-03 -1.157033E-08
         4  22  1.136682E+01  1.187753E+00  1.187717E+00  1.483926E-05 -5.794839E-03  5.753103E-09
         4  23  1.137932E+01  1.193582E+00  1.193479E+00 -1.279574E-06  8.821198E-03 -6.736263E-10
         4  24  1.139416E+01  1.199453E+00  1.199828E+00 -1.739842E-05 -5.334773E-03 -1.157084E-08
         4  25  1.300293E+01  1.888693E+00  1.888657E+00  1.483984E-05 -5.441605E-03  5.752989E-09
         4  26  1.302349E+01  1.897975E+00  1.897872E+00 -1.279623E-06  9.310059E-03 -6.736339E-10
         4  27  1.304639E+01  1.907298E+00  1.907673E+00 -1.739910E-05 -4.710445E-03 -1.157213E-08
