
KNOT2
tra         3  0.2561E-01  0.4778E-13  0.3704E-13
rot        38  0.1644E-16 -0.7084E-15  0.9157E-15
exp        39  0.0000E+00 -0.5020E-04 -0.5020E-04

 displacements (vx,vy,vz) for set NALL and time  0.1000000E+01

         1  0.000000E+00 -1.355253E-20  0.000000E+00
         2  1.262218E-02  1.253175E-14  9.764569E-15
         3  2.560755E-02  4.777678E-14  3.703548E-14
         4  4.947505E-02  7.806535E-14  6.133584E-14
         5  7.513283E-02  1.220511E-13  9.704764E-14

 forces (fx,fy,fz) for set NALL and time  0.1000000E+01

         1 -5.000000E+03 -1.685548E-11 -1.838285E-11
         2 -2.562517E-11 -5.591933E-13  5.153211E-12
         3 -1.000444E-10  2.396153E-12  2.273737E-12
         4 -2.549516E-11  1.831160E-12  3.100187E-12
         5  5.000000E+03  1.409704E-11  6.828649E-12

 stresses (elem, integ.pnt.,sxx,syy,szz,sxy,sxz,syz) for set ELALL and time  0.1000000E+01

         1   1  4.906950E+01 -1.046441E+00 -1.046441E+00  5.048174E+00 -5.048174E+00  6.695228E-02
         1   2  5.191509E+01  1.820734E+00  1.820734E+00  2.973122E+00 -2.973122E+00  3.772817E-02
         1   3  4.908898E+01 -4.764928E+00 -4.764928E+00  8.980690E-01 -8.980690E-01  8.504055E-03
         1   4  4.869839E+01 -1.157666E+00 -1.191142E+00  5.048905E+00  6.149052E-13  2.663360E-13
         1   5  5.153302E+01  1.683938E+00  1.665074E+00  2.973852E+00 -1.888639E-13 -2.362607E-13
         1   6  4.869595E+01 -4.927296E+00 -4.931548E+00  8.987996E-01  5.064768E-13 -1.399901E-13
         1   7  4.906950E+01 -1.046441E+00 -1.046441E+00  5.048174E+00  5.048174E+00 -6.695228E-02
         1   8  5.191509E+01  1.820734E+00  1.820734E+00  2.973122E+00  2.973122E+00 -3.772817E-02
         1   9  4.908898E+01 -4.764928E+00 -4.764928E+00  8.980690E-01  8.980690E-01 -8.504055E-03
         1  10  4.869839E+01 -1.191142E+00 -1.157666E+00  7.648033E-13 -5.048905E+00 -3.275665E-13
         1  11  5.153302E+01  1.665074E+00  1.683938E+00 -2.191412E-13 -2.973852E+00  3.099445E-13
         1  12  4.869595E+01 -4.931548E+00 -4.927296E+00  6.558744E-13 -8.987996E-01  1.780421E-13
         1  13  4.832727E+01 -1.302367E+00 -1.302367E+00  2.992423E-13  2.770449E-13  2.134906E-15
         1  14  5.115095E+01  1.528278E+00  1.528278E+00 -4.887141E-13 -3.770600E-13 -3.279859E-15
         1  15  4.830292E+01 -5.093915E+00 -5.093915E+00  5.676866E-13  4.114951E-13 -1.722891E-15
         1  16  4.869839E+01 -1.191142E+00 -1.157666E+00  8.511979E-13  5.048905E+00  3.279608E-13
         1  17  5.153302E+01  1.665074E+00  1.683938E+00 -1.761799E-13  2.973852E+00 -3.177986E-13
         1  18  4.869595E+01 -4.931548E+00 -4.927296E+00  6.716842E-13  8.987996E-01 -1.841502E-13
         1  19  4.906950E+01 -1.046441E+00 -1.046441E+00 -5.048174E+00 -5.048174E+00 -6.695228E-02
         1  20  5.191509E+01  1.820734E+00  1.820734E+00 -2.973122E+00 -2.973122E+00 -3.772817E-02
         1  21  4.908898E+01 -4.764928E+00 -4.764928E+00 -8.980690E-01 -8.980690E-01 -8.504055E-03
         1  22  4.869839E+01 -1.157666E+00 -1.191142E+00 -5.048905E+00  8.304425E-13 -2.595350E-13
         1  23  5.153302E+01  1.683938E+00  1.665074E+00 -2.973852E+00 -7.462034E-14  2.308454E-13
         1  24  4.869595E+01 -4.927296E+00 -4.931548E+00 -8.987996E-01  5.234338E-13  1.369059E-13
         1  25  4.906950E+01 -1.046441E+00 -1.046441E+00 -5.048174E+00  5.048174E+00  6.695228E-02
         1  26  5.191509E+01  1.820734E+00  1.820734E+00 -2.973122E+00  2.973122E+00  3.772817E-02
         1  27  4.908898E+01 -4.764928E+00 -4.764928E+00 -8.980690E-01  8.980690E-01  8.504055E-03
         2   1  2.096789E+02  4.037544E+01  4.037544E+01 -8.647099E-01  8.647099E-01  3.366519E-02
         2   2  1.909747E+02 -9.288170E+00 -9.288170E+00 -1.107207E+01  1.107207E+01  1.493553E-01
         2   3  2.096017E+02  3.267037E+00  3.267037E+00 -2.127942E+01  2.127942E+01  2.650455E-01
         2   4  2.081230E+02  3.973267E+01  3.971584E+01 -8.676022E-01  1.193535E-12 -3.065816E-13
         2   5  1.894621E+02 -9.829707E+00 -9.904385E+00 -1.107496E+01 -8.949066E-13 -5.343211E-13
         2   6  2.081326E+02  2.826728E+00  2.694205E+00 -2.128231E+01  3.155100E-12  5.472129E-13
         2   7  2.096789E+02  4.037544E+01  4.037544E+01 -8.647099E-01 -8.647099E-01 -3.366519E-02
         2   8  1.909747E+02 -9.288170E+00 -9.288170E+00 -1.107207E+01 -1.107207E+01 -1.493553E-01
         2   9  2.096017E+02  3.267037E+00  3.267037E+00 -2.127942E+01 -2.127942E+01 -2.650455E-01
         2  10  2.081230E+02  3.971584E+01  3.973267E+01  1.523138E-12  8.676022E-01  2.258125E-13
         2  11  1.894621E+02 -9.904385E+00 -9.829707E+00  1.178280E-13  1.107496E+01  4.270692E-13
         2  12  2.081326E+02  2.694205E+00  2.826728E+00 -1.074420E-12  2.128231E+01 -3.153191E-13
         2  13  2.065671E+02  3.907307E+01  3.907307E+01  9.545854E-13  1.411027E-12 -6.765151E-14
         2  14  1.879496E+02 -1.044592E+01 -1.044592E+01 -1.603054E-13 -9.483837E-13 -1.169298E-13
         2  15  2.066635E+02  2.253896E+00  2.253896E+00  8.648487E-13  4.285335E-13  1.024830E-13
         2  16  2.081230E+02  3.971584E+01  3.973267E+01  8.226629E-13 -8.676022E-01 -3.478132E-13
         2  17  1.894621E+02 -9.904385E+00 -9.829707E+00 -3.937579E-13 -1.107496E+01 -6.184448E-13
         2  18  2.081326E+02  2.694205E+00  2.826728E+00  2.624277E-12 -2.128231E+01  5.911922E-13
         2  19  2.096789E+02  4.037544E+01  4.037544E+01  8.647099E-01  8.647099E-01 -3.366519E-02
         2  20  1.909747E+02 -9.288170E+00 -9.288170E+00  1.107207E+01  1.107207E+01 -1.493553E-01
         2  21  2.096017E+02  3.267037E+00  3.267037E+00  2.127942E+01  2.127942E+01 -2.650455E-01
         2  22  2.081230E+02  3.973267E+01  3.971584E+01  8.676022E-01  1.982823E-12  1.800076E-13
         2  23  1.894621E+02 -9.829707E+00 -9.904385E+00  1.107496E+01  1.987270E-14  3.265250E-13
         2  24  2.081326E+02  2.826728E+00  2.694205E+00  2.128231E+01 -1.023118E-13 -2.987270E-13
         2  25  2.096789E+02  4.037544E+01  4.037544E+01  8.647099E-01 -8.647099E-01  3.366519E-02
         2  26  1.909747E+02 -9.288170E+00 -9.288170E+00  1.107207E+01 -1.107207E+01  1.493553E-01
         2  27  2.096017E+02  3.267037E+00  3.267037E+00  2.127942E+01 -2.127942E+01  2.650455E-01
