
 displacements (vx,vy,vz) for set NALL and time  0.1000000E+01

         1 -1.796173E-14 -6.617445E-24  1.411761E-14
         2 -1.556313E-07 -2.562114E-10 -4.035696E-10
         3 -7.788027E-08 -6.458369E-11 -1.011235E-10
         4 -3.113636E-07 -1.023060E-09 -1.536968E-09
         5 -2.333793E-07 -5.758160E-10 -8.893828E-10

 stresses (elem, integ.pnt.,sxx,syy,szz,sxy,sxz,syz) for set EALL and time  0.1000000E+01

         1   1 -8.124556E-02 -2.553106E+00  2.159428E+00 -3.614121E+01 -5.821333E+01  1.232716E+00
         1   2 -1.588047E-02 -1.411617E+00  1.241999E+00 -3.556211E+01 -5.856268E+01 -3.720865E-01
         1   3  5.652451E-02 -2.434704E-01  3.213708E-01 -3.497388E+01 -5.892075E+01 -3.118930E-01
         1   4 -9.689231E-03 -5.267494E-02  1.471645E-02  1.682770E-01 -5.808786E+01  2.068009E+00
         1   5 -5.272863E-03 -5.000798E-02  2.664683E-02  7.506835E-01 -5.807396E+01  1.034526E-01
         1   6 -5.106935E-03 -3.195363E-02  9.068199E-03  1.330952E+00 -5.806709E+01 -2.166713E-01
         1   7  1.881789E-01  2.643094E+00 -2.066695E+00  3.648017E+01 -5.800185E+01  1.099133E+00
         1   8  1.274737E-01  1.513212E+00 -1.145186E+00  3.706472E+01 -5.762470E+01 -4.360259E-01
         1   9  7.489038E-02  4.110765E-01 -2.243538E-01  3.763585E+01 -5.725288E+01 -3.473119E-01
         1  10 -3.682861E-03  3.564685E-02 -2.051921E-02 -3.629724E+01 -1.042515E-01  7.825478E-01
         1  11 -8.746075E-03  3.743811E-02 -3.911379E-02 -3.629998E+01 -4.683840E-01 -6.191950E-01
         1  12 -1.129682E-02  5.461089E-02 -6.474271E-02 -3.629144E+01 -8.342064E-01 -3.763928E-01
         1  13 -6.674711E-02 -6.184560E-02 -5.199574E-02  5.940138E-08  5.028405E-08  1.684632E+00
         1  14 -6.974140E-02 -6.326774E-02 -6.076471E-02  2.749124E-08  3.821814E-08 -1.116867E-01
         1  15 -8.204476E-02 -6.107981E-02 -1.041026E-01  3.223639E-08  5.422152E-08 -2.634624E-01
         1  16 -3.693309E-03  3.564686E-02 -2.051926E-02  3.629724E+01  1.042516E-01  7.825478E-01
         1  17 -8.756405E-03  3.743809E-02 -3.911372E-02  3.629998E+01  4.683841E-01 -6.191951E-01
         1  18 -1.130713E-02  5.461060E-02 -6.474263E-02  3.629144E+01  8.342065E-01 -3.763930E-01
         1  19  1.881935E-01  2.643094E+00 -2.066695E+00 -3.648017E+01  5.800185E+01  1.099134E+00
         1  20  1.274884E-01  1.513212E+00 -1.145186E+00 -3.706472E+01  5.762470E+01 -4.360259E-01
         1  21  7.490506E-02  4.110767E-01 -2.243544E-01 -3.763585E+01  5.725288E+01 -3.473120E-01
         1  22 -9.685045E-03 -5.267491E-02  1.471648E-02 -1.682768E-01  5.808786E+01  2.068009E+00
         1  23 -5.268590E-03 -5.000802E-02  2.664666E-02 -7.506835E-01  5.807396E+01  1.034525E-01
         1  24 -5.102625E-03 -3.195379E-02  9.067717E-03 -1.330952E+00  5.806709E+01 -2.166715E-01
         1  25 -8.125183E-02 -2.553106E+00  2.159428E+00  3.614121E+01  5.821333E+01  1.232716E+00
         1  26 -1.588653E-02 -1.411617E+00  1.241999E+00  3.556211E+01  5.856268E+01 -3.720867E-01
         1  27  5.651850E-02 -2.434709E-01  3.213704E-01  3.497388E+01  5.892075E+01 -3.118933E-01
         2   1  7.494064E-02  3.735946E-01 -1.867526E-01 -3.462804E+01 -5.912049E+01  3.782203E-01
         2   2  1.274946E-01  1.461253E+00 -1.093047E+00 -3.403878E+01 -5.946268E+01  5.707927E-01
         2   3  1.884137E-01  2.744460E+00 -2.167010E+00 -3.343573E+01 -5.980956E+01 -8.504278E-01
         2   4 -5.055730E-03 -5.412741E-02  3.136304E-02  1.670324E+00 -5.805827E+01  2.134055E-01
         2   5 -5.248327E-03 -3.905403E-02  1.584021E-02  2.250191E+00 -5.803551E+01 -1.068527E-01
         2   6 -9.447549E-03  1.612858E-01 -1.982583E-01  2.832562E+00 -5.801971E+01 -2.060505E+00
         2   7  5.657769E-02 -2.740384E-01  3.520708E-01  3.797066E+01 -5.703544E+01  2.811001E-01
         2   8 -1.583607E-02 -1.442855E+00  1.273410E+00  3.853996E+01 -5.664779E+01  2.332703E-01
         2   9 -8.096451E-02 -2.412973E+00  2.020326E+00  3.910049E+01 -5.626940E+01 -1.469185E+00
         2  10 -1.125090E-02  1.552921E-02 -2.555216E-02 -3.628597E+01 -1.041565E+00  3.805334E-01
         2  11 -8.736994E-03 -2.657742E-02  2.500364E-02 -3.627592E+01 -1.407357E+00  6.198530E-01
         2  12 -3.466636E-03  1.166478E-01 -1.006120E-01 -3.625460E+01 -1.770870E+00 -7.754925E-01
         2  13 -8.199824E-02 -8.831010E-02 -7.676757E-02  4.767924E-08 -6.159879E-08  2.642786E-01
         2  14 -6.973952E-02 -7.473114E-02 -4.922937E-02  3.286097E-07  1.188130E-07  1.109688E-01
         2  15 -6.654641E-02  1.123656E-01 -2.253563E-01  6.389264E-07 -4.610723E-07 -1.676191E+00
         2  16 -1.125903E-02  1.552941E-02 -2.555165E-02  3.628597E+01  1.041565E+00  3.805333E-01
         2  17 -8.745619E-03 -2.657838E-02  2.500223E-02  3.627592E+01  1.407357E+00  6.198532E-01
         2  18 -3.475637E-03  1.166459E-01 -1.006152E-01  3.625460E+01  1.770869E+00 -7.754921E-01
         2  19  5.659035E-02 -2.740386E-01  3.520700E-01 -3.797066E+01  5.703544E+01  2.811001E-01
         2  20 -1.582235E-02 -1.442854E+00  1.273412E+00 -3.853996E+01  5.664779E+01  2.332703E-01
         2  21 -8.094977E-02 -2.412970E+00  2.020331E+00 -3.910049E+01  5.626940E+01 -1.469185E+00
         2  22 -5.051195E-03 -5.412744E-02  3.136273E-02 -1.670324E+00  5.805827E+01  2.134054E-01
         2  23 -5.243221E-03 -3.905354E-02  1.584087E-02 -2.250190E+00  5.803551E+01 -1.068525E-01
         2  24 -9.441803E-03  1.612869E-01 -1.982565E-01 -2.832560E+00  5.801971E+01 -2.060505E+00
         2  25  7.493704E-02  3.735948E-01 -1.867524E-01  3.462804E+01  5.912049E+01  3.782201E-01
         2  26  1.274910E-01  1.461253E+00 -1.093048E+00  3.403878E+01  5.946268E+01  5.707931E-01
         2  27  1.884105E-01  2.744459E+00 -2.167012E+00  3.343573E+01  5.980956E+01 -8.504268E-01
