
KNOT2
tra         2 -0.1777E-06  0.3282E-05  0.2795E-04
rot        30 -0.4162E-04 -0.1025E-04  0.6549E-05
exp        31 -0.1174E+00  0.1829E-06 -0.2753E-07

 displacements (vx,vy,vz) for set NALL and time  0.1000000E+01

         1  3.443127E-14 -1.654361E-24  1.900895E-15
         2  2.304207E-08  2.326478E-06  2.772087E-05
         3 -8.003880E-08  8.240222E-07  1.296423E-05
         4  1.018094E-14  0.000000E+00  5.798666E-15
         5  1.038270E-07  1.920238E-06  1.643674E-05

 stresses (elem, integ.pnt.,sxx,syy,szz,sxy,sxz,syz) for set EALL and time  0.1000000E+01

         1   1 -6.120946E-01  4.253448E-02 -8.608963E-02 -3.742012E-01  1.051440E+00 -1.577302E-02
         1   2 -8.757848E-02 -5.132137E-02 -5.520184E-03 -1.970395E-01 -2.703756E-01  4.047989E-02
         1   3  6.204689E-01  2.298327E-01  3.122654E-01  2.122991E-02  9.758136E-01  1.370263E-02
         1   4 -4.524341E-03 -3.235877E-03  3.975597E-03 -2.726496E-03  1.051457E+00 -1.569323E-02
         1   5 -1.339181E-02  1.586989E-03 -1.161349E-02 -1.327972E-03 -2.716264E-01  3.793817E-02
         1   6  3.777208E-03  1.394174E-02  5.252343E-02  9.064378E-05  9.733006E-01  1.254477E-02
         1   7  6.029067E-01 -4.889859E-02  9.402711E-02  3.708804E-01  1.050421E+00 -1.253122E-02
         1   8  6.060069E-02  5.450685E-02 -1.776234E-02  1.956846E-01 -2.739312E-01  3.713328E-02
         1   9 -6.131472E-01 -2.020299E-01 -2.073143E-01 -2.057781E-02  9.697338E-01  1.177843E-02
         1  10 -6.248681E-01  4.745478E-02 -7.546072E-02  6.513514E-02  8.160346E-01 -3.868656E-03
         1  11 -9.540505E-02 -4.743844E-02  4.809952E-03  5.194676E-02 -4.465119E-01  4.825752E-03
         1  12  6.138152E-01  2.289230E-01  3.135313E-01  7.986730E-02  8.846319E-01 -3.881065E-03
         1  13 -2.945659E-02  3.794131E-04  5.555800E-03 -6.747970E-04  8.147752E-01 -3.807833E-03
         1  14 -4.058173E-02 -6.279589E-04 -1.174435E-02 -4.552389E-04 -4.483158E-01  2.277344E-03
         1  15 -2.944601E-02  2.140920E-03  4.191506E-02 -2.140284E-04  8.822819E-01 -5.041291E-03
         1  16  5.656563E-01 -4.665849E-02  8.649184E-02 -6.435608E-02  8.123946E-01 -6.647832E-04
         1  17  1.389728E-02  4.612917E-02 -2.841815E-02 -5.155802E-02 -4.512411E-01  1.465780E-03
         1  18 -6.730849E-01 -2.247840E-01 -2.298594E-01 -7.982517E-02  8.788107E-01 -5.810008E-03
         1  19 -6.718043E-01  3.772181E-02 -7.951167E-02  5.044259E-01  8.600799E-01  6.819533E-03
         1  20 -1.374070E-01 -5.820745E-02  4.694959E-04  3.008897E-01 -4.647097E-01 -3.151376E-02
         1  21  5.730089E-01  2.133747E-01  3.001561E-01  1.384592E-01  8.298751E-01 -2.161920E-02
         1  22 -5.454163E-02  3.914563E-03  7.034029E-03  1.289096E-03  8.575454E-01  6.862180E-03
         1  23 -6.792760E-02 -2.915936E-03 -1.196537E-02  3.318875E-04 -4.670669E-01 -3.406837E-02
         1  24 -6.279800E-02 -9.716968E-03  3.124712E-02 -6.064696E-04  8.276881E-01 -2.278172E-02
         1  25  5.622905E-01 -2.990858E-02  9.343986E-02 -4.997228E-01  8.538224E-01  9.987094E-03
         1  26  1.065945E-03  5.226276E-02 -2.458134E-02 -2.989286E-01 -4.706125E-01 -3.488611E-02
         1  27 -6.991277E-01 -2.330134E-01 -2.378823E-01 -1.392027E-01  8.243125E-01 -2.355274E-02
         2   1 -8.970288E-03  9.170011E-03  3.552495E-02 -2.490818E-01 -1.395504E+00 -4.380626E-02
         2   2 -9.292565E-02 -1.170518E-02 -4.154296E-02 -2.124488E-01  1.513725E-01 -4.972322E-02
         2   3 -1.052995E-01  2.172846E-02  6.594656E-02 -1.984704E-01 -5.775528E-01  1.167483E-01
         2   4 -5.752961E-01 -2.294748E-01 -1.646778E-01 -1.007160E-01 -1.189142E+00 -1.439662E-02
         2   5 -1.966417E-01 -7.410001E-02 -3.410966E-02  1.419952E-01  4.278554E-01 -1.310646E-02
         2   6  1.454459E-01  3.349434E-02  2.282082E-02  2.535394E-01 -9.519780E-01  1.513346E-02
         2   7 -9.869377E-01 -3.826111E-01 -2.674821E-01  1.507704E-01 -5.896261E-01  7.713187E-03
         2   8 -1.224213E-01 -1.443162E-02  1.115648E-01  4.385176E-01  1.017231E+00  2.386279E-02
         2   9  5.250941E-01  1.117741E-01  1.004887E-02 -4.000788E-01 -3.227549E+00 -2.774321E-02
         2  10  5.189601E-01  2.330438E-01  2.446526E-01 -1.068101E-01 -1.204835E+00 -1.978644E-02
         2  11  3.782263E-02  4.386303E-02 -1.937277E-02  1.348966E-01  3.890669E-01 -2.112507E-02
         2  12 -3.391773E-01 -6.140517E-02 -1.967813E-02 -3.497173E-01 -1.126439E+00  2.912341E-02
         2  13 -3.985510E-02 -1.458969E-03  4.206555E-02 -9.692563E-02 -1.193312E+00 -6.242631E-03
         2  14 -4.833996E-02 -4.983185E-05 -5.420177E-03  1.566122E-01  4.126183E-01  7.376432E-04
         2  15 -4.148719E-02  2.106156E-03 -2.093890E-03  3.769610E-02 -7.369951E-01  7.823120E-05
         2  16 -5.991098E-01 -2.335764E-01 -1.637796E-01  2.191757E-02 -1.072398E+00  7.167010E-03
         2  17 -1.350720E-01 -4.045042E-02  3.700981E-03  2.333854E-01  4.916648E-01  2.237688E-02
         2  18  2.562879E-01  5.871506E-02  2.339291E-02 -2.406215E-01 -1.012836E+00 -2.870898E-02
         2  19  9.090128E-01  3.801277E-01  3.319906E-01 -3.179835E-02 -5.930476E-01 -1.116945E-02
         2  20  1.310303E-02  7.236278E-03 -1.623750E-01  2.725138E-01  1.099557E+00 -9.426791E-03
         2  21 -6.006658E-01 -1.077634E-01  2.673889E-02 -5.762182E-01 -3.175162E+00  2.795916E-03
         2  22  4.941720E-01  2.238202E-01  2.469241E-01 -2.007113E-01 -1.089698E+00  2.829621E-03
         2  23  9.753800E-02  6.954657E-02  1.970516E-02  2.046593E-02  5.483502E-01  1.618039E-02
         2  24 -2.261615E-01 -2.365888E-02 -2.496488E-02  1.360039E-01 -8.359670E-01 -1.652348E-02
         2  25 -8.019709E-02 -1.379766E-02  4.526048E-02 -2.508276E-01 -1.210411E+00  2.584554E-02
         2  26 -3.915540E-03  1.475898E-02  3.297595E-02 -3.050980E-01  3.184616E-01  4.447135E-02
         2  27  2.661040E-02 -2.271059E-02 -6.552039E-02 -2.663009E-01 -4.017688E-01 -9.730345E-02
