
 displacements (vx,vy,vz) for set NALL and time  0.1000000E+01

         1  0.000000E+00  0.000000E+00  0.000000E+00
         2  0.000000E+00  0.000000E+00  0.000000E+00
         3  0.000000E+00  0.000000E+00 -1.414996E-05
         4  0.000000E+00  0.000000E+00 -1.414996E-05
         5  0.000000E+00  0.000000E+00  0.000000E+00
         6  0.000000E+00  0.000000E+00  0.000000E+00
         7  0.000000E+00  0.000000E+00 -1.414996E-05
         8  0.000000E+00  0.000000E+00 -1.414996E-05
         9  0.000000E+00  0.000000E+00  1.997221E-02
        10  0.000000E+00  0.000000E+00  1.997221E-02
        11  2.627485E-05  1.796308E-18  1.988549E-02
        12  9.707289E-19  2.627485E-05  1.988549E-02
        13  0.000000E+00  0.000000E+00  1.997221E-02
        14  0.000000E+00  0.000000E+00  1.997221E-02
        15  2.372951E-19 -2.627485E-05  1.988549E-02
        16 -2.627485E-05  2.096060E-18  1.988549E-02

 stresses (elem, integ.pnt.,sxx,syy,szz,sxy,sxz,syz) for set EALL and time  0.1000000E+01

         1   1 -1.714334E+00 -1.714334E+00 -4.000000E+00  0.000000E+00  0.000000E+00  0.000000E+00
         1   2 -1.714334E+00 -1.714334E+00 -4.000000E+00  0.000000E+00  8.551472E-18  0.000000E+00
         1   3 -1.714334E+00 -1.714334E+00 -4.000000E+00  0.000000E+00  1.368236E-16  0.000000E+00
         1   4 -1.714334E+00 -1.714334E+00 -4.000000E+00  0.000000E+00  2.052353E-16  0.000000E+00
         1   5 -1.714334E+00 -1.714334E+00 -4.000000E+00  0.000000E+00  0.000000E+00  0.000000E+00
         1   6 -1.714334E+00 -1.714334E+00 -4.000000E+00  0.000000E+00  8.551472E-18  0.000000E+00
         1   7 -1.714334E+00 -1.714334E+00 -4.000000E+00  0.000000E+00  0.000000E+00  0.000000E+00
         1   8 -1.714334E+00 -1.714334E+00 -4.000000E+00  0.000000E+00  6.841178E-17  0.000000E+00
         2   1 -3.668305E+01 -3.668212E+01 -1.129830E+02  7.828959E-14  2.276430E-13  6.117689E+00
         2   2 -3.668212E+01 -3.668305E+01 -1.129830E+02 -2.468251E-15  6.117689E+00 -1.374250E-13
         2   3  6.659094E+00  6.660024E+00 -8.698364E+01  2.887250E-13 -3.329846E-13  6.119662E+00
         2   4  6.660024E+00  6.659094E+00 -8.698364E+01 -1.216984E-14  6.119662E+00  8.289335E-13
         2   5 -3.668212E+01 -3.668305E+01 -1.129830E+02  5.699916E-14 -6.117689E+00  4.736365E-14
         2   6 -3.668305E+01 -3.668212E+01 -1.129830E+02 -2.589635E-14  6.170458E-13 -6.117689E+00
         2   7  6.660024E+00  6.659094E+00 -8.698364E+01  2.015833E-13 -6.119662E+00  8.747486E-13
         2   8  6.659094E+00  6.660024E+00 -8.698364E+01 -9.420546E-14  6.175834E-13 -6.119662E+00
