
 displacements (vx,vy,vz) for set NALL and time  0.1000000E+01

         1  0.000000E+00  0.000000E+00  0.000000E+00
         2  0.000000E+00  0.000000E+00  0.000000E+00
         3  0.000000E+00  0.000000E+00 -1.414996E-05
         4  0.000000E+00  0.000000E+00 -1.414996E-05
         5  0.000000E+00  0.000000E+00  0.000000E+00
         6  0.000000E+00  0.000000E+00  0.000000E+00
         7  0.000000E+00  0.000000E+00 -1.414996E-05
         8  0.000000E+00  0.000000E+00 -1.414996E-05
         9  0.000000E+00  0.000000E+00  8.571368E-05
        10  0.000000E+00  0.000000E+00  8.571368E-05
        11  2.627485E-05  9.703466E-21 -1.011036E-06
        12  9.411594E-20  2.627485E-05 -1.011036E-06
        13  0.000000E+00  0.000000E+00  8.571368E-05
        14  0.000000E+00  0.000000E+00  8.571368E-05
        15  1.502815E-20 -2.627485E-05 -1.011036E-06
        16 -2.627485E-05  7.506545E-20 -1.011036E-06

 stresses (elem, integ.pnt.,sxx,syy,szz,sxy,sxz,syz) for set EALL and time  0.1000000E+01

         1   1 -1.714334E+00 -1.714334E+00 -4.000000E+00  0.000000E+00  0.000000E+00  0.000000E+00
         1   2 -1.714334E+00 -1.714334E+00 -4.000000E+00  0.000000E+00  8.551472E-18  0.000000E+00
         1   3 -1.714334E+00 -1.714334E+00 -4.000000E+00  0.000000E+00  1.368236E-16  0.000000E+00
         1   4 -1.714334E+00 -1.714334E+00 -4.000000E+00  0.000000E+00  2.052353E-16  0.000000E+00
         1   5 -1.714334E+00 -1.714334E+00 -4.000000E+00  0.000000E+00  0.000000E+00  0.000000E+00
         1   6 -1.714334E+00 -1.714334E+00 -4.000000E+00  0.000000E+00  8.551472E-18  0.000000E+00
         1   7 -1.714334E+00 -1.714334E+00 -4.000000E+00  0.000000E+00  0.000000E+00  0.000000E+00
         1   8 -1.714334E+00 -1.714334E+00 -4.000000E+00  0.000000E+00  6.841178E-17  0.000000E+00
         2   1 -3.668305E+01 -3.668212E+01 -1.129830E+02  2.398681E-15  1.433872E-14  6.117689E+00
         2   2 -3.668212E+01 -3.668305E+01 -1.129830E+02  2.216365E-15  6.117689E+00 -6.986894E-16
         2   3  6.659094E+00  6.660024E+00 -8.698364E+01 -6.480507E-16 -5.653363E-16  6.119662E+00
         2   4  6.660024E+00  6.659094E+00 -8.698364E+01  1.766806E-15  6.119662E+00  4.589887E-15
         2   5 -3.668212E+01 -3.668305E+01 -1.129830E+02  6.141102E-16 -6.117689E+00  1.017906E-14
         2   6 -3.668305E+01 -3.668212E+01 -1.129830E+02  4.900117E-16  1.890103E-15 -6.117689E+00
         2   7  6.660024E+00  6.659094E+00 -8.698364E+01 -2.145786E-15 -6.119662E+00  4.056195E-15
         2   8  6.659094E+00  6.660024E+00 -8.698364E+01  5.365595E-15  3.332438E-16 -6.119662E+00
