
 velocities (vx,vy,vz) for set NALL and time  0.1000000E-01

         1  0.000000E+00  0.000000E+00  0.000000E+00
         2  0.000000E+00  0.000000E+00  0.000000E+00
         3  0.000000E+00  0.000000E+00  0.000000E+00
         4  0.000000E+00  0.000000E+00  0.000000E+00
         5  1.000000E+00  0.000000E+00  0.000000E+00
         6  1.000000E+00  0.000000E+00  0.000000E+00
         7  1.000000E+00  0.000000E+00  0.000000E+00
         8  1.000000E+00  0.000000E+00  0.000000E+00

 static pressures for set NALL and time  0.1000000E-01

         1  1.000000E+00
         2  1.000000E+00
         3  1.000000E+00
         4  1.000000E+00
         5  1.000000E+00
         6  1.000000E+00
         7  1.000000E+00
         8  1.000000E+00

 viscous stresses (elem, integ.pnt.,sxx,syy,szz,sxy,sxz,syz) for set EALL and time  0.1000000E-01

         1   1  0.000000E+00  0.000000E+00  0.000000E+00  1.000000E+00  0.000000E+00  0.000000E+00
