
 displacements (vx,vy,vz) for set MIDBOT and time  0.1000000E+01

         2  1.259921E-06 -2.249926E-06  0.000000E+00
         4  1.079911E-06 -2.249942E-06  0.000000E+00
         6  8.999344E-07 -2.249980E-06  0.000000E+00
         8  7.199564E-07 -2.249993E-06  0.000000E+00
        10  5.399715E-07 -2.249996E-06  0.000000E+00
        12  3.599829E-07 -2.249997E-06  0.000000E+00
        14  1.799920E-07 -2.249997E-06  0.000000E+00
        16 -3.385257E-16 -2.249997E-06  0.000000E+00
        18 -1.799920E-07 -2.249997E-06  0.000000E+00
        20 -3.599829E-07 -2.249997E-06  0.000000E+00
        22 -5.399715E-07 -2.249996E-06  0.000000E+00
        24 -7.199564E-07 -2.249993E-06  0.000000E+00
        26 -8.999344E-07 -2.249980E-06  0.000000E+00
        28 -1.079911E-06 -2.249942E-06  0.000000E+00
        30 -1.259921E-06 -2.249926E-06  0.000000E+00

 displacements (vx,vy,vz) for set END_BOT and time  0.1000000E+01

         1  1.349920E-06 -2.249931E-06  3.126743E-22
         3  1.169914E-06 -2.249919E-06  1.654361E-24
         5  9.899220E-07 -2.249968E-06 -2.216844E-22
         7  8.099466E-07 -2.249988E-06  7.576974E-22
         9  6.299646E-07 -2.249995E-06  2.051408E-22
        11  4.499776E-07 -2.249997E-06 -1.091878E-22
        13  2.699877E-07 -2.249997E-06  5.955700E-23
        15  8.999606E-08 -2.249997E-06  2.249931E-22
        17 -8.999606E-08 -2.249997E-06 -5.475936E-22
        19 -2.699877E-07 -2.249997E-06  9.413315E-22
        21 -4.499776E-07 -2.249997E-06 -9.098987E-22
        23 -6.299646E-07 -2.249995E-06 -9.810362E-22
        25 -8.099466E-07 -2.249988E-06  1.935603E-22
        27 -9.899220E-07 -2.249968E-06 -8.073283E-22
        29 -1.169914E-06 -2.249919E-06  1.095187E-21
        31 -1.349920E-06 -2.249931E-06 -3.573420E-22

 stresses (elem, integ.pnt.,sxx,syy,szz,sxy,sxz,syz) for set PLATE and time  0.1000000E+01

         1   1  7.760591E-05  8.999968E+00 -6.931137E-05 -1.147534E-05 -2.425481E-05  1.714970E-05
         1   2 -2.735661E-06  8.999996E+00  8.403586E-05  1.099730E-05 -5.663847E-05  1.438265E-05
         1   3  5.340612E-05  9.000442E+00  2.748146E-04  6.167150E-05 -8.902214E-05 -3.134601E-05
         1   4  3.229295E-07  8.999947E+00 -6.816545E-05  3.310595E-05 -6.159632E-05  8.907803E-05
         1   5 -6.582757E-05  8.999960E+00  2.555789E-05  4.840023E-05  2.617799E-05 -5.785931E-05
         1   6  4.746689E-05  9.000434E+00  2.569564E-04  9.189606E-05  1.139523E-04 -2.477583E-04
         1   7 -2.005900E-04  8.999879E+00 -9.737010E-05  7.737005E-05 -9.100821E-05  1.610064E-04
         1   8 -2.684087E-04  8.999861E+00 -1.002756E-04  8.548596E-05  1.169241E-04 -1.301013E-04
         1   9 -1.138208E-04  9.000347E+00  1.347379E-04  1.218034E-04  3.248564E-04 -4.641705E-04
         1  10  8.063764E-05  9.000149E+00 -1.413355E-05 -7.125836E-05 -3.575494E-14  4.926497E-14
         1  11 -1.797372E-04  8.999757E+00 -4.081955E-05  5.744337E-05 -2.189143E-14  8.112697E-16
         1  12 -3.036286E-04  8.999783E+00 -3.007408E-05  2.143466E-04  1.255102E-14 -3.661440E-14
         1  13  1.892556E-04  9.000207E+00  6.668419E-05 -8.668815E-05 -1.448998E-14  4.636634E-14
         1  14 -5.692817E-05  8.999800E+00 -1.962571E-05  3.483522E-05 -9.609993E-15 -8.509779E-15
         1  15 -1.236669E-04  8.999854E+00  3.173961E-05  1.845601E-04  8.504881E-15 -3.191612E-14
         1  16  1.742435E-04  9.000220E+00  1.171513E-04 -1.024351E-04 -2.563271E-14  4.336017E-14
         1  17 -7.360837E-05  8.999782E+00 -6.578739E-05  1.190987E-05 -1.536555E-14 -1.160344E-14
         1  18 -9.905372E-05  8.999847E+00 -1.080716E-05  1.544564E-04 -1.641097E-15 -2.226106E-14
         1  19  7.760591E-05  8.999968E+00 -6.931137E-05 -1.147534E-05  2.425481E-05 -1.714970E-05
         1  20 -2.735661E-06  8.999996E+00  8.403586E-05  1.099730E-05  5.663847E-05 -1.438265E-05
         1  21  5.340612E-05  9.000442E+00  2.748146E-04  6.167150E-05  8.902214E-05  3.134601E-05
         1  22  3.229294E-07  8.999947E+00 -6.816545E-05  3.310595E-05  6.159632E-05 -8.907803E-05
         1  23 -6.582757E-05  8.999960E+00  2.555789E-05  4.840023E-05 -2.617799E-05  5.785931E-05
         1  24  4.746689E-05  9.000434E+00  2.569564E-04  9.189606E-05 -1.139523E-04  2.477583E-04
         1  25 -2.005900E-04  8.999879E+00 -9.737010E-05  7.737005E-05  9.100821E-05 -1.610064E-04
         1  26 -2.684087E-04  8.999861E+00 -1.002756E-04  8.548596E-05 -1.169241E-04  1.301013E-04
         1  27 -1.138208E-04  9.000347E+00  1.347379E-04  1.218034E-04 -3.248564E-04  4.641705E-04
         2   1 -8.789372E-05  9.000347E+00  1.953690E-04 -2.191104E-04 -9.916313E-05 -3.898143E-05
         2   2  1.123305E-04  8.999930E+00  7.157793E-05 -5.380493E-05 -1.008321E-05 -1.236248E-05
         2   3  4.877130E-04  9.000009E+00  3.591700E-05 -6.800994E-05  7.899670E-05 -1.766041E-05
         2   4  4.090807E-04  9.000550E+00  3.984666E-04 -4.320041E-04  1.335278E-04 -2.605253E-04
         2   5  2.834236E-04  8.999976E+00  1.239368E-04 -1.455641E-04  8.213522E-05 -1.073709E-04
         2   6  3.648416E-04  8.999929E+00  1.200994E-05 -3.863446E-05  3.074261E-05  1.386661E-05
         2   7  9.571080E-04  9.000764E+00  5.840490E-04 -6.477186E-04  3.597437E-04 -4.820692E-04
         2   8  5.185199E-04  9.000045E+00  1.889979E-04 -2.401439E-04  1.678785E-04 -2.023793E-04
         2   9  3.189238E-04  8.999885E+00  3.102242E-05 -1.207971E-05 -2.398662E-05  4.539363E-05
         2  10 -2.863149E-04  8.999743E+00 -4.538554E-05 -4.547952E-05  1.240897E-14 -3.419385E-14
         2  11  7.083078E-05  8.999692E+00 -1.225513E-05  2.644034E-05 -1.951271E-14 -9.561879E-15
         2  12  6.031347E-04  9.000137E+00  1.090054E-04 -8.115023E-05 -2.498773E-14 -1.337756E-14
         2  13  4.723473E-05  8.999876E+00  8.767287E-05 -2.060661E-04  1.400983E-14 -2.772618E-14
         2  14  7.849914E-05  8.999668E+00 -2.993541E-05 -1.301164E-05 -3.426092E-15 -1.058573E-14
         2  15  3.168386E-04  8.999987E+00  1.505916E-05  5.324009E-07 -1.663189E-15 -8.896864E-15
         2  16  4.318373E-04  9.000020E+00  2.032162E-04 -3.694734E-04  5.668791E-15 -1.464693E-14
         2  17  1.501707E-04  8.999667E+00 -3.491347E-05 -5.528435E-05  8.323250E-15  2.173059E-16
         2  18  1.074960E-04  8.999874E+00 -3.596753E-05  7.939430E-05  1.078823E-14  7.567793E-15
         2  19 -8.789372E-05  9.000347E+00  1.953690E-04 -2.191104E-04  9.916313E-05  3.898143E-05
         2  20  1.123305E-04  8.999930E+00  7.157793E-05 -5.380493E-05  1.008321E-05  1.236248E-05
         2  21  4.877130E-04  9.000009E+00  3.591700E-05 -6.800994E-05 -7.899670E-05  1.766041E-05
         2  22  4.090807E-04  9.000550E+00  3.984666E-04 -4.320041E-04 -1.335278E-04  2.605253E-04
         2  23  2.834236E-04  8.999976E+00  1.239368E-04 -1.455641E-04 -8.213522E-05  1.073709E-04
         2  24  3.648416E-04  8.999929E+00  1.200994E-05 -3.863446E-05 -3.074261E-05 -1.386661E-05
         2  25  9.571080E-04  9.000764E+00  5.840490E-04 -6.477186E-04 -3.597437E-04  4.820692E-04
         2  26  5.185199E-04  9.000045E+00  1.889979E-04 -2.401439E-04 -1.678785E-04  2.023793E-04
         2  27  3.189238E-04  8.999885E+00  3.102242E-05 -1.207971E-05  2.398662E-05 -4.539363E-05
         3   1  3.659942E-04  9.000005E+00 -5.787446E-05  3.030829E-05  1.081606E-05 -1.669286E-05
         3   2  3.486768E-04  8.999991E+00 -2.324756E-05  1.539807E-05  7.483606E-07  2.394794E-06
         3   3  3.412100E-04  9.000010E+00  1.093758E-05  7.095839E-06 -9.319343E-06  5.777447E-06
         3   4  2.752263E-04  8.999946E+00 -5.571837E-05  3.371689E-05 -2.949259E-05  4.197060E-05
         3   5  2.655176E-04  8.999953E+00 -4.519757E-05  2.636458E-05 -1.807458E-05  2.777694E-05
         3   6  2.813647E-04  9.000008E+00  1.526456E-06  2.562025E-05 -6.656564E-06 -2.121721E-06
         3   7  1.950012E-04  8.999895E+00 -3.463284E-05  4.208384E-05 -6.735981E-05  1.006341E-04
         3   8  1.880185E-04  8.999918E+00 -5.961150E-05  4.228943E-05 -3.445608E-05  5.315908E-05
         3   9  2.222965E-04  9.000006E+00 -1.174195E-05  4.910301E-05 -1.552351E-06 -1.002089E-05
         3  10  4.222224E-04  9.000171E+00  8.799302E-06 -8.917133E-06 -1.144021E-14 -1.856472E-14
         3  11  3.619703E-04  9.000057E+00  4.914997E-07 -1.823691E-06 -4.076415E-15 -1.673582E-14
         3  12  3.115688E-04  8.999976E+00 -8.258072E-06  1.187774E-05  7.119876E-15  2.404181E-14
         3  13  3.699609E-04  9.000128E+00  2.745813E-05 -1.982010E-05 -5.382182E-15 -1.555849E-14
         3  14  3.173175E-04  9.000035E+00 -4.955769E-06 -5.168755E-06 -6.708654E-15 -1.949025E-14
         3  15  2.902299E-04  8.999991E+00 -1.166448E-06  1.609058E-05  8.370287E-16  2.036644E-14
         3  16  3.282422E-04  9.000094E+00  6.504641E-05 -2.576472E-05 -1.595317E-15  5.665334E-15
         3  17  2.783248E-04  9.000017E+00 -2.866956E-06 -3.555466E-06 -1.595682E-14 -1.051865E-15
         3  18  2.696681E-04  9.000004E+00  2.067896E-06  2.526177E-05 -3.867825E-15  1.828838E-14
         3  19  3.659942E-04  9.000005E+00 -5.787446E-05  3.030829E-05 -1.081606E-05  1.669286E-05
         3  20  3.486768E-04  8.999991E+00 -2.324756E-05  1.539807E-05 -7.483606E-07 -2.394794E-06
         3  21  3.412100E-04  9.000010E+00  1.093758E-05  7.095839E-06  9.319343E-06 -5.777447E-06
         3  22  2.752263E-04  8.999946E+00 -5.571837E-05  3.371689E-05  2.949259E-05 -4.197060E-05
         3  23  2.655176E-04  8.999953E+00 -4.519757E-05  2.636458E-05  1.807458E-05 -2.777694E-05
         3  24  2.813647E-04  9.000008E+00  1.526456E-06  2.562025E-05  6.656564E-06  2.121721E-06
         3  25  1.950012E-04  8.999895E+00 -3.463284E-05  4.208384E-05  6.735981E-05 -1.006341E-04
         3  26  1.880185E-04  8.999918E+00 -5.961150E-05  4.228943E-05  3.445608E-05 -5.315908E-05
         3  27  2.222965E-04  9.000006E+00 -1.174195E-05  4.910301E-05  1.552351E-06  1.002089E-05
         4   1  2.963672E-04  9.000005E+00  6.006597E-06  6.314107E-06 -8.498551E-06  3.205295E-06
         4   2  2.622211E-04  9.000001E+00  3.865539E-06  3.048608E-06 -2.805417E-06  1.022372E-06
         4   3  2.276065E-04  8.999998E+00 -1.931961E-06  6.145962E-06  2.887716E-06 -1.313339E-06
         4   4  2.749356E-04  9.000026E+00  1.738337E-05  1.752559E-05  4.089789E-06 -1.189751E-05
         4   5  2.444285E-04  9.000011E+00  9.995297E-06  1.433637E-05  2.971992E-06 -5.554350E-06
         4   6  2.136056E-04  8.999999E+00 -6.927162E-07  1.750999E-05  1.854194E-06  6.360212E-07
         4   7  2.494371E-04  9.000043E+00  2.115262E-05  2.686918E-05  1.574700E-05 -2.700031E-05
         4   8  2.244312E-04  9.000020E+00  1.286281E-05  2.375623E-05  7.818270E-06 -1.213107E-05
         4   9  1.992624E-04  8.999999E+00  1.629558E-06  2.700614E-05 -1.104584E-07  2.585381E-06
         4  10  2.818160E-04  8.999960E+00 -1.191790E-05  1.313968E-05 -3.736793E-15  1.725123E-14
         4  11  2.593568E-04  8.999983E+00 -2.372068E-06  4.823279E-06 -4.653804E-15 -2.345230E-14
         4  12  2.364291E-04  9.000007E+00  3.517318E-06  2.869730E-06 -4.329670E-15  3.821840E-14
         4  13  2.515453E-04  8.999977E+00 -4.329299E-06  2.824679E-05 -9.326661E-16  1.249223E-14
         4  14  2.327250E-04  8.999989E+00 -3.048755E-08  2.000667E-05 -3.537735E-15 -1.472563E-14
         4  15  2.135891E-04  9.000004E+00  9.683854E-07  1.812939E-05 -1.104849E-15  3.525572E-14
         4  16  2.172077E-04  8.999991E+00 -4.348228E-06  4.148601E-05  1.944055E-15  7.681399E-15
         4  17  2.038887E-04  8.999995E+00 -9.511557E-07  3.332216E-05 -4.661418E-15 -2.802786E-14
         4  18  1.904068E-04  9.000001E+00 -4.975181E-07  3.152116E-05 -2.502122E-15  4.722558E-15
         4  19  2.963672E-04  9.000005E+00  6.006597E-06  6.314106E-06  8.498551E-06 -3.205295E-06
         4  20  2.622211E-04  9.000001E+00  3.865539E-06  3.048608E-06  2.805417E-06 -1.022372E-06
         4  21  2.276065E-04  8.999998E+00 -1.931961E-06  6.145962E-06 -2.887716E-06  1.313339E-06
         4  22  2.749356E-04  9.000026E+00  1.738337E-05  1.752559E-05 -4.089789E-06  1.189751E-05
         4  23  2.444285E-04  9.000011E+00  9.995297E-06  1.433637E-05 -2.971992E-06  5.554350E-06
         4  24  2.136056E-04  8.999999E+00 -6.927163E-07  1.750999E-05 -1.854194E-06 -6.360211E-07
         4  25  2.494371E-04  9.000043E+00  2.115262E-05  2.686918E-05 -1.574700E-05  2.700031E-05
         4  26  2.244312E-04  9.000020E+00  1.286281E-05  2.375623E-05 -7.818270E-06  1.213107E-05
         4  27  1.992624E-04  8.999999E+00  1.629558E-06  2.700614E-05  1.104584E-07 -2.585381E-06
         5   1  2.132258E-04  8.999999E+00 -2.783536E-06  5.565046E-06  2.188575E-06 -1.554438E-06
         5   2  1.936491E-04  9.000000E+00 -4.273681E-07  3.300273E-06  6.481383E-07 -2.781258E-07
         5   3  1.734878E-04  9.000000E+00  5.933792E-07  3.344082E-06 -8.922983E-07  4.877512E-07
         5   4  1.977193E-04  8.999995E+00 -4.595537E-06  1.640462E-05 -5.658089E-07  2.240259E-06
         5   5  1.819099E-04  8.999999E+00 -1.937649E-06  1.265282E-05 -6.125144E-07  1.331975E-06
         5   6  1.660264E-04  9.000002E+00  5.758337E-07  1.120961E-05 -6.592200E-07 -8.674376E-08
         5   7  1.806651E-04  8.999992E+00 -5.085829E-06  2.744256E-05 -3.070380E-06  6.034955E-06
         5   8  1.681234E-04  8.999997E+00 -3.292017E-06  2.220374E-05 -1.623354E-06  2.942076E-06
         5   9  1.560181E-04  9.000002E+00 -4.515937E-07  1.927351E-05 -1.763286E-07 -6.612387E-07
         5  10  2.162758E-04  9.000010E+00  1.633005E-06  3.325009E-06 -7.091581E-15  4.949191E-14
         5  11  1.936793E-04  9.000004E+00  9.694237E-07  2.371948E-06 -1.846399E-14 -1.877875E-14
         5  12  1.704983E-04  8.999998E+00 -1.029579E-06  3.727469E-06 -1.662921E-14 -2.353995E-14
         5  13  2.030648E-04  9.000008E+00  8.047888E-07  1.315800E-05  1.175707E-15  4.452680E-14
         5  14  1.842357E-04  9.000004E+00  4.429266E-07  1.071791E-05 -3.657110E-15 -9.265537E-15
         5  15  1.653325E-04  9.000000E+00 -6.334075E-08  1.058641E-05 -3.434060E-15 -2.303879E-14
         5  16  1.883061E-04  9.000005E+00  1.298280E-06  2.318936E-05  3.447615E-15  8.769177E-15
         5  17  1.727447E-04  9.000003E+00  7.234223E-08  1.926225E-05  8.882119E-16 -3.129526E-14
         5  18  1.576196E-04  9.000002E+00 -1.069844E-07  1.764373E-05 -1.276656E-15 -1.750933E-14
         5  19  2.132258E-04  8.999999E+00 -2.783536E-06  5.565046E-06 -2.188575E-06  1.554438E-06
         5  20  1.936491E-04  9.000000E+00 -4.273680E-07  3.300273E-06 -6.481383E-07  2.781258E-07
         5  21  1.734878E-04  9.000000E+00  5.933792E-07  3.344083E-06  8.922983E-07 -4.877513E-07
         5  22  1.977193E-04  8.999995E+00 -4.595537E-06  1.640462E-05  5.658089E-07 -2.240258E-06
         5  23  1.819099E-04  8.999999E+00 -1.937649E-06  1.265282E-05  6.125144E-07 -1.331975E-06
         5  24  1.660264E-04  9.000002E+00  5.758337E-07  1.120961E-05  6.592200E-07  8.674372E-08
         5  25  1.806651E-04  8.999992E+00 -5.085829E-06  2.744256E-05  3.070380E-06 -6.034955E-06
         5  26  1.681234E-04  8.999997E+00 -3.292017E-06  2.220374E-05  1.623354E-06 -2.942076E-06
         5  27  1.560181E-04  9.000002E+00 -4.515936E-07  1.927351E-05  1.763286E-07  6.612387E-07
         6   1  1.620486E-04  9.000000E+00 -1.413260E-08  3.076069E-06 -6.322297E-07  5.270387E-07
         6   2  1.495038E-04  9.000000E+00  1.089359E-07  1.748652E-06 -3.268684E-07  2.341919E-07
         6   3  1.365661E-04  9.000000E+00 -4.001801E-07  1.811658E-06 -2.150707E-08 -4.543327E-08
         6   4  1.574362E-04  9.000002E+00  9.975852E-07  9.643548E-06  9.726289E-08 -5.203143E-07
         6   5  1.463448E-04  9.000002E+00  7.813817E-07  7.228213E-06  3.471665E-08 -2.535377E-07
         6   6  1.348473E-04  9.000001E+00 -9.785685E-08  6.203301E-06 -2.782959E-08  2.646043E-08
         6   7  1.509754E-04  9.000004E+00  1.085577E-06  1.598496E-05  7.692732E-07 -1.567667E-06
         6   8  1.414523E-04  9.000003E+00  7.983520E-07  1.248171E-05  3.388194E-07 -7.412674E-07
         6   9  1.315099E-04  9.000001E+00 -1.827586E-07  1.036888E-05 -9.163435E-08  9.835413E-08
         6  10  1.610756E-04  8.999997E+00 -1.148809E-06  3.268043E-06 -4.647128E-15 -3.901872E-15
         6  11  1.492897E-04  8.999999E+00 -2.668290E-07  1.659736E-06  8.905075E-15  6.976871E-15
         6  12  1.371109E-04  9.000000E+00 -1.703359E-08  1.441854E-06  1.353134E-14 -4.159214E-14
         6  13  1.559717E-04  8.999999E+00 -3.477575E-07  1.008849E-05  3.562036E-15 -9.447481E-15
         6  14  1.456391E-04  9.000001E+00  1.949503E-07  7.392268E-06  1.272465E-14 -8.582301E-15
         6  15  1.349005E-04  9.000001E+00  7.462308E-08  6.086468E-06  1.452871E-14 -2.691436E-14
         6  16  1.490193E-04  9.000001E+00 -4.704323E-07  1.668288E-05  2.016496E-15 -1.102835E-14
         6  17  1.402551E-04  9.000001E+00  1.253970E-09  1.289873E-05  1.363972E-14 -1.857092E-14
         6  18  1.310716E-04  9.000001E+00 -2.209452E-07  1.050502E-05  2.027881E-14 -6.953795E-15
         6  19  1.620486E-04  9.000000E+00 -1.413256E-08  3.076069E-06  6.322297E-07 -5.270387E-07
         6  20  1.495038E-04  9.000000E+00  1.089359E-07  1.748652E-06  3.268684E-07 -2.341919E-07
         6  21  1.365661E-04  9.000000E+00 -4.001801E-07  1.811658E-06  2.150710E-08  4.543316E-08
         6  22  1.574362E-04  9.000002E+00  9.975853E-07  9.643548E-06 -9.726288E-08  5.203142E-07
         6  23  1.463448E-04  9.000002E+00  7.813817E-07  7.228213E-06 -3.471663E-08  2.535377E-07
         6  24  1.348473E-04  9.000001E+00 -9.785681E-08  6.203301E-06  2.782960E-08 -2.646049E-08
         6  25  1.509754E-04  9.000004E+00  1.085577E-06  1.598496E-05 -7.692732E-07  1.567667E-06
         6  26  1.414523E-04  9.000003E+00  7.983520E-07  1.248171E-05 -3.388194E-07  7.412674E-07
         6  27  1.315099E-04  9.000001E+00 -1.827585E-07  1.036888E-05  9.163439E-08 -9.835413E-08
         7   1  1.314157E-04  9.000000E+00 -3.444372E-07  1.590125E-06  2.907789E-07 -8.416779E-08
         7   2  1.259058E-04  9.000000E+00  5.208580E-08  8.257772E-07  5.072247E-08  1.975322E-08
         7   3  1.200616E-04  9.000000E+00 -1.327514E-07  5.540294E-07 -1.893340E-07  7.091058E-08
         7   4  1.300716E-04  9.000000E+00 -2.761529E-07  5.217337E-06  1.308493E-07  1.126915E-07
         7   5  1.252339E-04  9.000001E+00  1.207150E-07  3.453415E-06 -1.274574E-08  8.643252E-08
         7   6  1.201145E-04  9.000001E+00  5.933779E-08  2.182094E-06 -1.563408E-07  7.409954E-09
         7   7  1.272499E-04  9.000000E+00 -4.893047E-07  8.826030E-06 -1.255121E-08  3.095509E-07
         7   8  1.230512E-04  9.000001E+00 -1.692278E-07  6.062534E-06 -5.968485E-08  1.531118E-07
         7   9  1.186237E-04  9.000001E+00 -1.842809E-07  3.791639E-06 -1.068185E-07 -5.609074E-08
         7  10  1.314083E-04  9.000000E+00 -1.023163E-07  1.404670E-06  7.816072E-15 -5.501418E-14
         7  11  1.257148E-04  9.000000E+00  1.105638E-07  7.324549E-07  7.789908E-17 -3.153217E-14
         7  12  1.196870E-04  9.000000E+00 -2.579163E-07  5.528395E-07  4.386076E-15  3.919580E-15
         7  13  1.302255E-04  9.000001E+00  3.506735E-08  4.970668E-06  3.683483E-15 -3.714421E-14
         7  14  1.252040E-04  9.000001E+00  2.482923E-07  3.298879E-06 -1.541464E-15 -2.990899E-14
         7  15  1.199011E-04  9.000001E+00  3.272103E-09  2.119689E-06 -3.273256E-16  4.621924E-15
         7  16  1.275650E-04  9.000001E+00 -1.089853E-07  8.518147E-06  8.534694E-15 -1.754926E-14
         7  17  1.231826E-04  9.000001E+00  2.744874E-08  5.846783E-06 -5.388901E-15 -3.651498E-14
         7  18  1.185714E-04  9.000001E+00 -1.712473E-07  3.668020E-06 -6.796240E-15 -1.718132E-14
         7  19  1.314157E-04  9.000000E+00 -3.444371E-07  1.590125E-06 -2.907789E-07  8.416767E-08
         7  20  1.259058E-04  9.000000E+00  5.208587E-08  8.257772E-07 -5.072248E-08 -1.975328E-08
         7  21  1.200616E-04  9.000000E+00 -1.327513E-07  5.540295E-07  1.893340E-07 -7.091058E-08
         7  22  1.300716E-04  9.000000E+00 -2.761528E-07  5.217337E-06 -1.308493E-07 -1.126916E-07
         7  23  1.252339E-04  9.000001E+00  1.207150E-07  3.453415E-06  1.274573E-08 -8.643259E-08
         7  24  1.201145E-04  9.000001E+00  5.933778E-08  2.182094E-06  1.563408E-07 -7.409914E-09
         7  25  1.272499E-04  9.000000E+00 -4.893048E-07  8.826030E-06  1.255123E-08 -3.095509E-07
         7  26  1.230512E-04  9.000001E+00 -1.692278E-07  6.062534E-06  5.968486E-08 -1.531119E-07
         7  27  1.186237E-04  9.000001E+00 -1.842809E-07  3.791639E-06  1.068185E-07  5.609071E-08
         8   1  1.182793E-04  9.000000E+00 -1.941952E-07  4.797687E-07  4.616153E-08  8.104496E-08
         8   2  1.184227E-04  9.000000E+00  3.175342E-08  3.644685E-14  4.566668E-15  8.878302E-08
         8   3  1.182793E-04  9.000000E+00 -1.941952E-07 -4.797686E-07 -4.616153E-08  8.104482E-08
         8   4  1.185635E-04  9.000001E+00  5.159068E-08  1.371728E-06  8.575410E-08 -2.033736E-08
         8   5  1.186991E-04  9.000001E+00  2.594836E-07  4.993626E-14  9.572695E-15 -1.259926E-08
         8   6  1.185635E-04  9.000001E+00  5.159058E-08 -1.371728E-06 -8.575408E-08 -2.033748E-08
         8   7  1.174908E-04  9.000001E+00 -7.655480E-08  2.263688E-06  1.253467E-07 -1.217197E-07
         8   8  1.176187E-04  9.000001E+00  1.132824E-07  3.771944E-14  9.517014E-15 -1.139816E-07
         8   9  1.174908E-04  9.000001E+00 -7.655490E-08 -2.263688E-06 -1.253466E-07 -1.217198E-07
         8  10  1.181460E-04  9.000000E+00 -2.464353E-07  5.036595E-07 -2.388967E-15  2.995439E-15
         8  11  1.182894E-04  9.000000E+00 -2.048663E-08 -1.588187E-14 -7.086968E-15 -2.292907E-14
         8  12  1.181460E-04  9.000000E+00 -2.464352E-07 -5.036594E-07 -9.412027E-15  1.242834E-15
         8  13  1.183884E-04  9.000001E+00 -1.856755E-08  1.395619E-06  2.367776E-15  8.852198E-15
         8  14  1.185241E-04  9.000001E+00  1.893254E-07  9.671650E-15 -2.537501E-16 -1.998240E-14
         8  15  1.183884E-04  9.000001E+00 -1.856756E-08 -1.395619E-06 -5.127753E-15  2.095443E-15
         8  16  1.172739E-04  9.000001E+00 -1.646311E-07  2.287578E-06  6.981516E-15 -1.390450E-14
         8  17  1.174018E-04  9.000001E+00  2.520610E-08  2.840411E-14  1.209515E-14 -1.844383E-14
         8  18  1.172739E-04  9.000001E+00 -1.646312E-07 -2.287578E-06  6.463153E-15  2.106760E-15
         8  19  1.182793E-04  9.000000E+00 -1.941952E-07  4.797687E-07 -4.616154E-08 -8.104494E-08
         8  20  1.184227E-04  9.000000E+00  3.175355E-08  2.053953E-14 -1.362812E-14 -8.878307E-08
         8  21  1.182793E-04  9.000000E+00 -1.941951E-07 -4.797686E-07  4.616151E-08 -8.104483E-08
         8  22  1.185635E-04  9.000001E+00  5.159068E-08  1.371728E-06 -8.575410E-08  2.033739E-08
         8  23  1.186991E-04  9.000001E+00  2.594836E-07  4.912180E-14 -1.604445E-14  1.259924E-08
         8  24  1.185635E-04  9.000001E+00  5.159064E-08 -1.371728E-06  8.575406E-08  2.033747E-08
         8  25  1.174908E-04  9.000001E+00 -7.655477E-08  2.263688E-06 -1.253467E-07  1.217197E-07
         8  26  1.176187E-04  9.000001E+00  1.132824E-07  5.670641E-14 -5.427751E-16  1.139815E-07
         8  27  1.174908E-04  9.000001E+00 -7.655487E-08 -2.263688E-06  1.253466E-07  1.217198E-07
         9   1  1.200616E-04  9.000000E+00 -1.327513E-07 -5.540294E-07  1.893340E-07  7.091047E-08
         9   2  1.259058E-04  9.000000E+00  5.208610E-08 -8.257773E-07 -5.072248E-08  1.975312E-08
         9   3  1.314157E-04  9.000000E+00 -3.444368E-07 -1.590125E-06 -2.907789E-07 -8.416775E-08
         9   4  1.201145E-04  9.000001E+00  5.933770E-08 -2.182094E-06  1.563408E-07  7.409782E-09
         9   5  1.252339E-04  9.000001E+00  1.207150E-07 -3.453415E-06  1.274574E-08  8.643241E-08
         9   6  1.300716E-04  9.000000E+00 -2.761529E-07 -5.217337E-06 -1.308493E-07  1.126915E-07
         9   7  1.186237E-04  9.000001E+00 -1.842809E-07 -3.791639E-06  1.068185E-07 -5.609090E-08
         9   8  1.230512E-04  9.000001E+00 -1.692279E-07 -6.062534E-06  5.968486E-08  1.531117E-07
         9   9  1.272499E-04  9.000000E+00 -4.893049E-07 -8.826030E-06  1.255123E-08  3.095508E-07
         9  10  1.196870E-04  9.000000E+00 -2.579161E-07 -5.528395E-07  8.058848E-15  9.454171E-15
         9  11  1.257148E-04  9.000000E+00  1.105641E-07 -7.324549E-07  1.489198E-14  4.119283E-15
         9  12  1.314083E-04  9.000000E+00 -1.023159E-07 -1.404670E-06  7.412093E-15  6.621341E-14
         9  13  1.199011E-04  9.000001E+00  3.272096E-09 -2.119690E-06 -3.427004E-16 -2.810690E-15
         9  14  1.252040E-04  9.000001E+00  2.482923E-07 -3.298879E-06  5.879588E-15 -1.161561E-14
         9  15  1.302255E-04  9.000001E+00  3.506742E-08 -4.970668E-06  5.096620E-15  6.034677E-14
         9  16  1.185714E-04  9.000001E+00 -1.712473E-07 -3.668020E-06 -1.548760E-15 -1.436863E-14
         9  17  1.231826E-04  9.000001E+00  2.744872E-08 -5.846783E-06 -1.669983E-15 -2.977667E-14
         9  18  1.275650E-04  9.000001E+00 -1.089853E-07 -8.518147E-06 -4.850365E-15  4.941385E-14
         9  19  1.200616E-04  9.000000E+00 -1.327512E-07 -5.540295E-07 -1.893339E-07 -7.091044E-08
         9  20  1.259058E-04  9.000000E+00  5.208596E-08 -8.257772E-07  5.072249E-08 -1.975312E-08
         9  21  1.314157E-04  9.000000E+00 -3.444370E-07 -1.590125E-06  2.907789E-07  8.416793E-08
         9  22  1.201145E-04  9.000001E+00  5.933772E-08 -2.182094E-06 -1.563408E-07 -7.409791E-09
         9  23  1.252339E-04  9.000001E+00  1.207149E-07 -3.453415E-06 -1.274574E-08 -8.643245E-08
         9  24  1.300716E-04  9.000000E+00 -2.761530E-07 -5.217337E-06  1.308493E-07 -1.126914E-07
         9  25  1.186237E-04  9.000001E+00 -1.842810E-07 -3.791639E-06 -1.068185E-07  5.609087E-08
         9  26  1.230512E-04  9.000001E+00 -1.692280E-07 -6.062534E-06 -5.968487E-08 -1.531118E-07
         9  27  1.272499E-04  9.000000E+00 -4.893049E-07 -8.826030E-06 -1.255123E-08 -3.095507E-07
        10   1  1.365661E-04  9.000000E+00 -4.001798E-07 -1.811658E-06  2.150707E-08 -4.543324E-08
        10   2  1.495038E-04  9.000000E+00  1.089360E-07 -1.748652E-06  3.268684E-07  2.341918E-07
        10   3  1.620486E-04  9.000000E+00 -1.413254E-08 -3.076069E-06  6.322297E-07  5.270387E-07
        10   4  1.348473E-04  9.000001E+00 -9.785693E-08 -6.203301E-06  2.782958E-08  2.646043E-08
        10   5  1.463448E-04  9.000002E+00  7.813815E-07 -7.228213E-06 -3.471666E-08 -2.535378E-07
        10   6  1.574362E-04  9.000002E+00  9.975851E-07 -9.643549E-06 -9.726290E-08 -5.203143E-07
        10   7  1.315099E-04  9.000001E+00 -1.827587E-07 -1.036888E-05  9.163435E-08  9.835409E-08
        10   8  1.414523E-04  9.000003E+00  7.983518E-07 -1.248171E-05 -3.388194E-07 -7.412674E-07
        10   9  1.509754E-04  9.000004E+00  1.085577E-06 -1.598496E-05 -7.692732E-07 -1.567667E-06
        10  10  1.371109E-04  9.000000E+00 -1.703332E-08 -1.441854E-06 -2.786991E-14  5.677910E-14
        10  11  1.492897E-04  8.999999E+00 -2.668287E-07 -1.659736E-06 -3.497831E-14 -2.302338E-14
        10  12  1.610756E-04  8.999997E+00 -1.148808E-06 -3.268043E-06 -2.424605E-14 -1.065777E-14
        10  13  1.349005E-04  9.000001E+00  7.462310E-08 -6.086468E-06 -8.432586E-15  5.408409E-14
        10  14  1.456391E-04  9.000001E+00  1.949503E-07 -7.392268E-06 -1.531661E-14 -2.211285E-14
        10  15  1.559717E-04  8.999999E+00 -3.477575E-07 -1.008849E-05 -1.112745E-14 -3.782016E-14
        10  16  1.310716E-04  9.000001E+00 -2.209452E-07 -1.050502E-05  5.072441E-16  6.370197E-14
        10  17  1.402551E-04  9.000001E+00  1.253982E-09 -1.289873E-05  2.746329E-15 -1.354961E-14
        10  18  1.490193E-04  9.000001E+00 -4.704324E-07 -1.668288E-05 -5.591368E-15 -3.789254E-14
        10  19  1.365661E-04  9.000000E+00 -4.001801E-07 -1.811658E-06 -2.150711E-08  4.543339E-08
        10  20  1.495038E-04  9.000000E+00  1.089360E-07 -1.748652E-06 -3.268684E-07 -2.341919E-07
        10  21  1.620486E-04  9.000000E+00 -1.413244E-08 -3.076069E-06 -6.322297E-07 -5.270387E-07
        10  22  1.348473E-04  9.000001E+00 -9.785700E-08 -6.203302E-06 -2.782959E-08 -2.646029E-08
        10  23  1.463448E-04  9.000002E+00  7.813816E-07 -7.228213E-06  3.471663E-08  2.535378E-07
        10  24  1.574362E-04  9.000002E+00  9.975851E-07 -9.643549E-06  9.726288E-08  5.203142E-07
        10  25  1.315099E-04  9.000001E+00 -1.827586E-07 -1.036888E-05 -9.163436E-08 -9.835398E-08
        10  26  1.414523E-04  9.000003E+00  7.983519E-07 -1.248171E-05  3.388194E-07  7.412674E-07
        10  27  1.509754E-04  9.000004E+00  1.085577E-06 -1.598496E-05  7.692732E-07  1.567667E-06
        11   1  1.734878E-04  9.000000E+00  5.933792E-07 -3.344082E-06  8.922983E-07  4.877512E-07
        11   2  1.936491E-04  9.000000E+00 -4.273681E-07 -3.300273E-06 -6.481383E-07 -2.781258E-07
        11   3  2.132258E-04  8.999999E+00 -2.783536E-06 -5.565046E-06 -2.188575E-06 -1.554438E-06
        11   4  1.660264E-04  9.000002E+00  5.758336E-07 -1.120961E-05  6.592200E-07 -8.674377E-08
        11   5  1.819099E-04  8.999999E+00 -1.937649E-06 -1.265282E-05  6.125144E-07  1.331975E-06
        11   6  1.977193E-04  8.999995E+00 -4.595536E-06 -1.640462E-05  5.658089E-07  2.240258E-06
        11   7  1.560181E-04  9.000002E+00 -4.515937E-07 -1.927351E-05  1.763286E-07 -6.612387E-07
        11   8  1.681234E-04  8.999997E+00 -3.292017E-06 -2.220374E-05  1.623354E-06  2.942076E-06
        11   9  1.806651E-04  8.999992E+00 -5.085829E-06 -2.744256E-05  3.070380E-06  6.034955E-06
        11  10  1.704983E-04  8.999998E+00 -1.029579E-06 -3.727469E-06 -6.807494E-15  1.158003E-14
        11  11  1.936793E-04  9.000004E+00  9.694238E-07 -2.371948E-06 -1.249295E-14 -1.230951E-15
        11  12  2.162758E-04  9.000010E+00  1.633005E-06 -3.325009E-06 -4.322244E-15 -5.877858E-14
        11  13  1.653325E-04  9.000000E+00 -6.334075E-08 -1.058641E-05 -8.207136E-15 -1.455602E-14
        11  14  1.842357E-04  9.000004E+00  4.429266E-07 -1.071791E-05 -1.389490E-14 -1.666040E-14
        11  15  2.030648E-04  9.000008E+00  8.047888E-07 -1.315800E-05 -8.897340E-15 -9.523331E-14
        11  16  1.576196E-04  9.000002E+00 -1.069844E-07 -1.764373E-05 -1.621080E-14 -1.407529E-14
        11  17  1.727447E-04  9.000003E+00  7.234221E-08 -1.926225E-05 -1.309297E-14 -1.354384E-14
        11  18  1.883061E-04  9.000005E+00  1.298280E-06 -2.318936E-05 -6.086975E-15 -1.312665E-13
        11  19  1.734878E-04  9.000000E+00  5.933792E-07 -3.344082E-06 -8.922983E-07 -4.877512E-07
        11  20  1.936491E-04  9.000000E+00 -4.273680E-07 -3.300273E-06  6.481383E-07  2.781258E-07
        11  21  2.132258E-04  8.999999E+00 -2.783536E-06 -5.565046E-06  2.188575E-06  1.554438E-06
        11  22  1.660264E-04  9.000002E+00  5.758336E-07 -1.120961E-05 -6.592200E-07  8.674370E-08
        11  23  1.819099E-04  8.999999E+00 -1.937649E-06 -1.265282E-05 -6.125144E-07 -1.331975E-06
        11  24  1.977193E-04  8.999995E+00 -4.595537E-06 -1.640462E-05 -5.658089E-07 -2.240259E-06
        11  25  1.560181E-04  9.000002E+00 -4.515937E-07 -1.927351E-05 -1.763286E-07  6.612387E-07
        11  26  1.681234E-04  8.999997E+00 -3.292017E-06 -2.220374E-05 -1.623354E-06 -2.942076E-06
        11  27  1.806651E-04  8.999992E+00 -5.085829E-06 -2.744256E-05 -3.070380E-06 -6.034955E-06
        12   1  2.276065E-04  8.999998E+00 -1.931961E-06 -6.145962E-06 -2.887716E-06 -1.313339E-06
        12   2  2.622211E-04  9.000001E+00  3.865539E-06 -3.048608E-06  2.805417E-06  1.022372E-06
        12   3  2.963672E-04  9.000005E+00  6.006597E-06 -6.314107E-06  8.498551E-06  3.205295E-06
        12   4  2.136056E-04  8.999999E+00 -6.927162E-07 -1.750999E-05 -1.854194E-06  6.360210E-07
        12   5  2.444285E-04  9.000011E+00  9.995297E-06 -1.433637E-05 -2.971992E-06 -5.554350E-06
        12   6  2.749356E-04  9.000026E+00  1.738337E-05 -1.752559E-05 -4.089789E-06 -1.189751E-05
        12   7  1.992624E-04  8.999999E+00  1.629558E-06 -2.700614E-05  1.104584E-07  2.585381E-06
        12   8  2.244312E-04  9.000020E+00  1.286281E-05 -2.375623E-05 -7.818270E-06 -1.213107E-05
        12   9  2.494371E-04  9.000043E+00  2.115262E-05 -2.686918E-05 -1.574700E-05 -2.700031E-05
        12  10  2.364291E-04  9.000007E+00  3.517318E-06 -2.869730E-06  2.025560E-14 -6.207642E-14
        12  11  2.593568E-04  8.999983E+00 -2.372068E-06 -4.823279E-06  2.251856E-14 -1.126986E-14
        12  12  2.818160E-04  8.999960E+00 -1.191790E-05 -1.313968E-05  7.850890E-15  3.659152E-14
        12  13  2.135891E-04  9.000004E+00  9.683854E-07 -1.812939E-05  7.281496E-15 -9.694250E-14
        12  14  2.327250E-04  8.999989E+00 -3.048757E-08 -2.000667E-05  4.737786E-15 -5.319951E-15
        12  15  2.515453E-04  8.999977E+00 -4.329299E-06 -2.824679E-05 -5.986379E-15  3.551480E-14
        12  16  1.904068E-04  9.000001E+00 -4.975181E-07 -3.152116E-05 -2.624856E-16 -1.317123E-13
        12  17  2.038887E-04  8.999995E+00 -9.511558E-07 -3.332216E-05 -1.652605E-15 -6.682866E-15
        12  18  2.172077E-04  8.999991E+00 -4.348228E-06 -4.148601E-05 -4.521891E-15  3.569931E-14
        12  19  2.276065E-04  8.999998E+00 -1.931961E-06 -6.145962E-06  2.887716E-06  1.313338E-06
        12  20  2.622211E-04  9.000001E+00  3.865539E-06 -3.048608E-06 -2.805417E-06 -1.022372E-06
        12  21  2.963672E-04  9.000005E+00  6.006597E-06 -6.314107E-06 -8.498551E-06 -3.205295E-06
        12  22  2.136056E-04  8.999999E+00 -6.927162E-07 -1.750999E-05  1.854194E-06 -6.360212E-07
        12  23  2.444285E-04  9.000011E+00  9.995297E-06 -1.433637E-05  2.971992E-06  5.554350E-06
        12  24  2.749356E-04  9.000026E+00  1.738337E-05 -1.752559E-05  4.089789E-06  1.189751E-05
        12  25  1.992624E-04  8.999999E+00  1.629558E-06 -2.700614E-05 -1.104584E-07 -2.585381E-06
        12  26  2.244312E-04  9.000020E+00  1.286281E-05 -2.375623E-05  7.818270E-06  1.213107E-05
        12  27  2.494371E-04  9.000043E+00  2.115262E-05 -2.686918E-05  1.574700E-05  2.700031E-05
        13   1  3.412100E-04  9.000010E+00  1.093758E-05 -7.095839E-06  9.319343E-06  5.777447E-06
        13   2  3.486768E-04  8.999991E+00 -2.324756E-05 -1.539807E-05 -7.483606E-07  2.394794E-06
        13   3  3.659942E-04  9.000005E+00 -5.787446E-05 -3.030829E-05 -1.081606E-05 -1.669286E-05
        13   4  2.813647E-04  9.000008E+00  1.526455E-06 -2.562025E-05  6.656564E-06 -2.121721E-06
        13   5  2.655176E-04  8.999953E+00 -4.519757E-05 -2.636458E-05  1.807458E-05  2.777694E-05
        13   6  2.752263E-04  8.999946E+00 -5.571837E-05 -3.371689E-05  2.949259E-05  4.197060E-05
        13   7  2.222965E-04  9.000006E+00 -1.174195E-05 -4.910301E-05  1.552351E-06 -1.002089E-05
        13   8  1.880185E-04  8.999918E+00 -5.961150E-05 -4.228943E-05  3.445608E-05  5.315908E-05
        13   9  1.950012E-04  8.999895E+00 -3.463284E-05 -4.208384E-05  6.735981E-05  1.006341E-04
        13  10  3.115688E-04  8.999976E+00 -8.258072E-06 -1.187774E-05 -1.182583E-14  3.606087E-14
        13  11  3.619703E-04  9.000057E+00  4.914997E-07  1.823691E-06 -7.024392E-15 -1.198828E-14
        13  12  4.222224E-04  9.000171E+00  8.799301E-06  8.917134E-06 -1.257286E-14 -3.875251E-14
        13  13  2.902299E-04  8.999991E+00 -1.166448E-06 -1.609058E-05 -1.166680E-14  1.646580E-14
        13  14  3.173175E-04  9.000035E+00 -4.955769E-06  5.168755E-06 -3.980387E-15 -3.165279E-14
        13  15  3.699609E-04  9.000128E+00  2.745813E-05  1.982010E-05  9.302311E-16 -3.148433E-14
        13  16  2.696681E-04  9.000004E+00  2.067896E-06 -2.526177E-05 -3.954577E-15 -4.051159E-15
        13  17  2.783248E-04  9.000017E+00 -2.866956E-06  3.555466E-06 -8.913147E-15 -5.596298E-14
        13  18  3.282422E-04  9.000094E+00  6.504641E-05  2.576472E-05 -1.114318E-14 -1.510937E-14
        13  19  3.412100E-04  9.000010E+00  1.093758E-05 -7.095839E-06 -9.319343E-06 -5.777447E-06
        13  20  3.486768E-04  8.999991E+00 -2.324756E-05 -1.539807E-05  7.483606E-07 -2.394794E-06
        13  21  3.659942E-04  9.000005E+00 -5.787446E-05 -3.030829E-05  1.081606E-05  1.669286E-05
        13  22  2.813647E-04  9.000008E+00  1.526455E-06 -2.562025E-05 -6.656564E-06  2.121721E-06
        13  23  2.655176E-04  8.999953E+00 -4.519757E-05 -2.636458E-05 -1.807458E-05 -2.777694E-05
        13  24  2.752263E-04  8.999946E+00 -5.571837E-05 -3.371689E-05 -2.949259E-05 -4.197060E-05
        13  25  2.222965E-04  9.000006E+00 -1.174195E-05 -4.910301E-05 -1.552351E-06  1.002089E-05
        13  26  1.880185E-04  8.999918E+00 -5.961150E-05 -4.228943E-05 -3.445608E-05 -5.315908E-05
        13  27  1.950012E-04  8.999895E+00 -3.463284E-05 -4.208384E-05 -6.735981E-05 -1.006341E-04
        14   1  4.877130E-04  9.000009E+00  3.591700E-05  6.800994E-05 -7.899670E-05 -1.766041E-05
        14   2  1.123305E-04  8.999930E+00  7.157793E-05  5.380493E-05  1.008321E-05 -1.236248E-05
        14   3 -8.789372E-05  9.000347E+00  1.953690E-04  2.191104E-04  9.916313E-05 -3.898143E-05
        14   4  3.648416E-04  8.999929E+00  1.200994E-05  3.863446E-05 -3.074261E-05  1.386661E-05
        14   5  2.834236E-04  8.999976E+00  1.239368E-04  1.455641E-04 -8.213522E-05 -1.073709E-04
        14   6  4.090807E-04  9.000550E+00  3.984666E-04  4.320041E-04 -1.335278E-04 -2.605253E-04
        14   7  3.189238E-04  8.999885E+00  3.102242E-05  1.207971E-05  2.398662E-05  4.539363E-05
        14   8  5.185199E-04  9.000045E+00  1.889979E-04  2.401439E-04 -1.678785E-04 -2.023793E-04
        14   9  9.571080E-04  9.000764E+00  5.840490E-04  6.477186E-04 -3.597437E-04 -4.820692E-04
        14  10  6.031347E-04  9.000137E+00  1.090054E-04  8.115022E-05  7.724167E-15 -2.277152E-14
        14  11  7.083078E-05  8.999692E+00 -1.225513E-05 -2.644034E-05  4.861549E-15  2.736789E-14
        14  12 -2.863149E-04  8.999743E+00 -4.538554E-05  4.547952E-05  1.918870E-15  4.320546E-14
        14  13  3.168386E-04  8.999987E+00  1.505916E-05 -5.324011E-07  9.849602E-16 -1.407906E-14
        14  14  7.849914E-05  8.999668E+00 -2.993541E-05  1.301164E-05 -1.572211E-15  1.412803E-14
        14  15  4.723473E-05  8.999876E+00  8.767287E-05  2.060661E-04 -4.070933E-15  4.723928E-14
        14  16  1.074960E-04  8.999874E+00 -3.596753E-05 -7.939430E-05 -1.927576E-14  6.346488E-15
        14  17  1.501707E-04  8.999667E+00 -3.491347E-05  5.528435E-05 -1.259919E-14  1.047357E-14
        14  18  4.318373E-04  9.000020E+00  2.032162E-04  3.694734E-04 -1.206918E-14  3.610346E-14
        14  19  4.877130E-04  9.000009E+00  3.591700E-05  6.800994E-05  7.899670E-05  1.766041E-05
        14  20  1.123305E-04  8.999930E+00  7.157793E-05  5.380493E-05 -1.008321E-05  1.236248E-05
        14  21 -8.789372E-05  9.000347E+00  1.953690E-04  2.191104E-04 -9.916313E-05  3.898143E-05
        14  22  3.648416E-04  8.999929E+00  1.200994E-05  3.863446E-05  3.074261E-05 -1.386661E-05
        14  23  2.834236E-04  8.999976E+00  1.239368E-04  1.455641E-04  8.213522E-05  1.073709E-04
        14  24  4.090807E-04  9.000550E+00  3.984666E-04  4.320041E-04  1.335278E-04  2.605253E-04
        14  25  3.189238E-04  8.999885E+00  3.102242E-05  1.207971E-05 -2.398662E-05 -4.539363E-05
        14  26  5.185199E-04  9.000045E+00  1.889979E-04  2.401439E-04  1.678785E-04  2.023793E-04
        14  27  9.571080E-04  9.000764E+00  5.840490E-04  6.477186E-04  3.597437E-04  4.820692E-04
        15   1  5.340612E-05  9.000442E+00  2.748146E-04 -6.167150E-05  8.902214E-05 -3.134601E-05
        15   2 -2.735661E-06  8.999996E+00  8.403586E-05 -1.099730E-05  5.663847E-05  1.438265E-05
        15   3  7.760591E-05  8.999968E+00 -6.931137E-05  1.147534E-05  2.425481E-05  1.714970E-05
        15   4  4.746689E-05  9.000434E+00  2.569564E-04 -9.189606E-05 -1.139523E-04 -2.477583E-04
        15   5 -6.582757E-05  8.999960E+00  2.555789E-05 -4.840023E-05 -2.617799E-05 -5.785931E-05
        15   6  3.229295E-07  8.999947E+00 -6.816545E-05 -3.310595E-05  6.159632E-05  8.907803E-05
        15   7 -1.138208E-04  9.000347E+00  1.347379E-04 -1.218034E-04 -3.248564E-04 -4.641705E-04
        15   8 -2.684087E-04  8.999861E+00 -1.002756E-04 -8.548596E-05 -1.169241E-04 -1.301013E-04
        15   9 -2.005900E-04  8.999879E+00 -9.737010E-05 -7.737005E-05  9.100821E-05  1.610064E-04
        15  10 -3.036286E-04  8.999783E+00 -3.007408E-05 -2.143466E-04 -1.708732E-14  2.372406E-14
        15  11 -1.797372E-04  8.999757E+00 -4.081955E-05 -5.744337E-05 -2.764610E-15 -1.198592E-14
        15  12  8.063764E-05  9.000149E+00 -1.413355E-05  7.125836E-05 -2.235985E-14  1.520280E-14
        15  13 -1.236669E-04  8.999854E+00  3.173961E-05 -1.845601E-04 -2.621620E-15  2.754494E-14
        15  14 -5.692817E-05  8.999800E+00 -1.962571E-05 -3.483522E-05  9.935619E-16 -9.080339E-15
        15  15  1.892556E-04  9.000207E+00  6.668419E-05  8.668815E-05 -2.248512E-14  2.039181E-14
        15  16 -9.905372E-05  8.999847E+00 -1.080716E-05 -1.544564E-04 -7.325904E-16  1.944827E-14
        15  17 -7.360837E-05  8.999782E+00 -6.578739E-05 -1.190987E-05  9.326922E-15 -1.900481E-14
        15  18  1.742435E-04  9.000220E+00  1.171513E-04  1.024351E-04 -1.401154E-14  1.621935E-14
        15  19  5.340612E-05  9.000442E+00  2.748146E-04 -6.167150E-05 -8.902214E-05  3.134601E-05
        15  20 -2.735661E-06  8.999996E+00  8.403586E-05 -1.099730E-05 -5.663847E-05 -1.438265E-05
        15  21  7.760591E-05  8.999968E+00 -6.931137E-05  1.147534E-05 -2.425481E-05 -1.714970E-05
        15  22  4.746689E-05  9.000434E+00  2.569564E-04 -9.189606E-05  1.139523E-04  2.477583E-04
        15  23 -6.582757E-05  8.999960E+00  2.555789E-05 -4.840023E-05  2.617799E-05  5.785931E-05
        15  24  3.229294E-07  8.999947E+00 -6.816545E-05 -3.310595E-05 -6.159632E-05 -8.907803E-05
        15  25 -1.138208E-04  9.000347E+00  1.347379E-04 -1.218034E-04  3.248564E-04  4.641705E-04
        15  26 -2.684087E-04  8.999861E+00 -1.002756E-04 -8.548596E-05  1.169241E-04  1.301013E-04
        15  27 -2.005900E-04  8.999879E+00 -9.737010E-05 -7.737005E-05 -9.100821E-05 -1.610064E-04
       101   1 -8.983945E-05  9.000159E+00  4.806750E-05 -3.513273E-05 -7.800509E-05  1.748626E-04
       101   2 -3.298258E-04  8.999672E+00 -1.916347E-04  2.936985E-04  1.298025E-04 -1.470905E-04
       101   3 -7.608660E-04  8.998708E+00 -5.906085E-04  6.986952E-04  3.376100E-04 -4.680152E-04
       101   4 -4.579761E-06  9.000048E+00  7.084694E-05  3.525684E-05 -1.468503E-05  8.217161E-05
       101   5 -7.272711E-05  8.999730E+00 -9.541424E-05  2.122620E-04  7.253586E-05 -9.139612E-05
       101   6 -3.329567E-04  8.998934E+00 -4.233466E-04  4.654328E-04  1.597568E-04 -2.639355E-04
       101   7 -6.143873E-05  8.999874E+00  2.933573E-05  1.240543E-04  3.986914E-05 -1.051943E-05
       101   8  5.978472E-05  8.999744E+00 -2.257693E-05  1.492334E-04  6.503375E-06 -3.570179E-05
       101   9 -1.210241E-05  8.999133E+00 -2.385603E-04  2.505781E-04 -2.686239E-05 -5.985577E-05
       101  10  9.227546E-05  9.000035E+00  6.538801E-05 -1.239752E-04 -3.099366E-14  4.697569E-14
       101  11  3.894592E-05  8.999984E+00  1.234263E-05  1.140303E-04 -1.663387E-14 -1.471105E-14
       101  12 -2.054375E-04  8.999455E+00 -1.999744E-04  4.282015E-04  3.058395E-17 -1.696623E-14
       101  13  1.859029E-05  8.999855E+00  2.004822E-05  8.633284E-06 -1.075179E-14  6.006429E-14
       101  14  1.370998E-04  8.999973E+00  4.044385E-05  9.481282E-05  7.456744E-16 -1.412888E-14
       101  15  6.352701E-05  8.999613E+00 -1.008317E-04  2.571579E-04  4.098522E-15  1.551852E-15
       101  16 -1.972135E-04  8.999614E+00 -8.958222E-05  1.596496E-04  4.952089E-15  5.206603E-14
       101  17  1.106667E-04  8.999919E+00  4.516193E-05  9.400316E-05  2.124299E-15 -9.315285E-15
       101  18  2.254364E-04  8.999744E+00  1.583538E-05  1.045222E-04 -8.457603E-15  2.768324E-14
       101  19 -8.983945E-05  9.000159E+00  4.806750E-05 -3.513273E-05  7.800509E-05 -1.748626E-04
       101  20 -3.298258E-04  8.999672E+00 -1.916347E-04  2.936985E-04 -1.298025E-04  1.470905E-04
       101  21 -7.608660E-04  8.998708E+00 -5.906085E-04  6.986952E-04 -3.376100E-04  4.680152E-04
       101  22 -4.579761E-06  9.000048E+00  7.084694E-05  3.525684E-05  1.468503E-05 -8.217161E-05
       101  23 -7.272711E-05  8.999730E+00 -9.541424E-05  2.122620E-04 -7.253586E-05  9.139612E-05
       101  24 -3.329567E-04  8.998934E+00 -4.233466E-04  4.654328E-04 -1.597568E-04  2.639355E-04
       101  25 -6.143873E-05  8.999874E+00  2.933573E-05  1.240543E-04 -3.986914E-05  1.051943E-05
       101  26  5.978472E-05  8.999744E+00 -2.257693E-05  1.492334E-04 -6.503375E-06  3.570179E-05
       101  27 -1.210241E-05  8.999133E+00 -2.385603E-04  2.505781E-04  2.686239E-05  5.985577E-05
       102   1  3.165069E-04  8.999111E+00 -1.446227E-04 -8.692366E-05  3.659466E-04 -4.787913E-04
       102   2  4.127885E-04  8.999773E+00  5.540663E-05 -7.528463E-05  1.619549E-04 -2.017054E-04
       102   3  3.451482E-04  9.000039E+00  1.056737E-04 -3.758428E-05 -4.203688E-05  6.586391E-05
       102   4  9.246040E-05  8.999075E+00 -2.592410E-04 -3.293013E-05  1.717089E-04 -2.658884E-04
       102   5  2.247314E-04  8.999722E+00 -3.714974E-05 -4.440831E-05  6.651680E-05 -1.068669E-04
       102   6  2.025972E-04  8.999982E+00  5.738464E-05 -2.982517E-05 -3.867534E-05  4.263798E-05
       102   7 -3.768045E-05  8.999098E+00 -2.716238E-04  1.482398E-05 -1.248656E-05 -5.298546E-05
       102   8  1.104956E-04  8.999710E+00 -7.433395E-05 -1.977141E-05 -1.887910E-05 -1.202842E-05
       102   9  1.137831E-04  8.999945E+00  1.760429E-05 -2.830548E-05 -2.527163E-05  1.941206E-05
       102  10  3.318657E-04  8.999643E+00  1.974756E-05 -1.198879E-04  6.673289E-15 -1.271698E-14
       102  11  2.727299E-04  8.999943E+00  6.435954E-05 -3.058049E-05  5.433598E-15 -7.388397E-15
       102  12  4.967237E-05  8.999846E+00 -4.079074E-05  8.478827E-05  1.286263E-14  3.846732E-15
       102  13  2.437389E-04  8.999666E+00 -3.661948E-05 -1.177002E-04  2.357880E-15  3.629521E-15
       102  14  2.205926E-04  8.999950E+00  3.005447E-05 -5.150995E-05 -3.414481E-16 -1.291468E-14
       102  15  4.304102E-05  8.999848E+00 -3.082850E-05  4.074160E-05  3.355755E-15  2.683034E-14
       102  16  2.495178E-04  8.999747E+00  9.249065E-06 -1.217519E-04 -2.062923E-14  2.739492E-14
       102  17  2.422766E-04  8.999997E+00  5.112157E-05 -7.867884E-05 -1.493333E-14 -9.628155E-15
       102  18  9.014664E-05  8.999869E+00 -1.235754E-05 -9.544498E-06 -6.296278E-15  4.579833E-14
       102  19  3.165069E-04  8.999111E+00 -1.446227E-04 -8.692366E-05 -3.659466E-04  4.787913E-04
       102  20  4.127885E-04  8.999773E+00  5.540663E-05 -7.528463E-05 -1.619549E-04  2.017054E-04
       102  21  3.451482E-04  9.000039E+00  1.056737E-04 -3.758428E-05  4.203688E-05 -6.586391E-05
       102  22  9.246040E-05  8.999075E+00 -2.592410E-04 -3.293013E-05 -1.717089E-04  2.658884E-04
       102  23  2.247314E-04  8.999722E+00 -3.714974E-05 -4.440831E-05 -6.651680E-05  1.068669E-04
       102  24  2.025972E-04  8.999982E+00  5.738464E-05 -2.982517E-05  3.867534E-05 -4.263798E-05
       102  25 -3.768045E-05  8.999098E+00 -2.716238E-04  1.482397E-05  1.248656E-05  5.298546E-05
       102  26  1.104956E-04  8.999710E+00 -7.433395E-05 -1.977141E-05  1.887910E-05  1.202842E-05
       102  27  1.137831E-04  8.999945E+00  1.760429E-05 -2.830548E-05  2.527163E-05 -1.941206E-05
       103   1  2.264255E-04  9.000018E+00  4.323549E-05 -4.952253E-06 -6.674585E-05  1.191759E-04
       103   2  2.052911E-04  9.000012E+00 -9.874182E-06  2.431301E-05 -3.249641E-05  4.679686E-05
       103   3  1.883296E-04  8.999982E+00 -2.464122E-05  5.465002E-05  1.753034E-06 -1.653292E-05
       103   4  2.004452E-04  9.000009E+00  5.969665E-05  6.666359E-07 -3.033507E-05  6.964737E-05
       103   5  1.855112E-04  9.000013E+00  1.248274E-05  2.338746E-05 -1.294679E-05  2.494419E-05
       103   6  1.657008E-04  8.999984E+00 -1.750343E-05  4.718003E-05  4.441482E-06 -1.070976E-05
       103   7  1.638537E-04  8.999988E+00  4.937458E-05  7.535323E-06  2.992326E-06  2.011887E-05
       103   8  1.612868E-04  9.000009E+00  2.244561E-05  2.371171E-05  3.519430E-06  3.091520E-06
       103   9  1.447942E-04  8.999987E+00 -8.370498E-06  4.095985E-05  4.046534E-06 -4.886592E-06
       103  10  2.193434E-04  8.999884E+00  8.560618E-07 -3.814299E-06 -1.961396E-15  7.393219E-15
       103  11  2.362820E-04  8.999967E+00 -1.418065E-05  9.411624E-06 -1.283380E-14  8.394685E-15
       103  12  2.573934E-04  9.000025E+00  9.125262E-06  2.370929E-05  6.781001E-17  3.505352E-14
       103  13  1.652943E-04  8.999862E+00  5.287718E-06  1.449558E-05  2.277152E-15  2.821920E-14
       103  14  1.884332E-04  8.999955E+00 -3.853238E-06  2.117706E-05  1.688798E-15 -3.901593E-15
       103  15  2.066957E-04  9.000015E+00  4.233551E-06  2.893029E-05  9.616238E-15  2.096792E-14
       103  16  1.006339E-04  8.999830E+00 -1.706386E-05  3.405525E-05  4.231867E-15  5.055935E-14
       103  17  1.361400E-04  8.999939E+00 -5.919873E-06  3.419230E-05  1.305680E-14  2.795318E-15
       103  18  1.577204E-04  9.000006E+00  1.336975E-06  3.540109E-05  1.370534E-14  1.879711E-14
       103  19  2.264255E-04  9.000018E+00  4.323549E-05 -4.952253E-06  6.674585E-05 -1.191759E-04
       103  20  2.052911E-04  9.000012E+00 -9.874182E-06  2.431301E-05  3.249641E-05 -4.679686E-05
       103  21  1.883296E-04  8.999982E+00 -2.464122E-05  5.465002E-05 -1.753034E-06  1.653292E-05
       103  22  2.004452E-04  9.000009E+00  5.969665E-05  6.666358E-07  3.033507E-05 -6.964737E-05
       103  23  1.855112E-04  9.000013E+00  1.248274E-05  2.338746E-05  1.294679E-05 -2.494419E-05
       103  24  1.657008E-04  8.999984E+00 -1.750343E-05  4.718003E-05 -4.441482E-06  1.070976E-05
       103  25  1.638537E-04  8.999988E+00  4.937458E-05  7.535323E-06 -2.992326E-06 -2.011887E-05
       103  26  1.612868E-04  9.000009E+00  2.244561E-05  2.371171E-05 -3.519430E-06 -3.091520E-06
       103  27  1.447942E-04  8.999987E+00 -8.370498E-06  4.095985E-05 -4.046534E-06  4.886592E-06
       104   1  2.040854E-04  8.999983E+00 -8.727721E-06  3.655399E-05  1.649167E-05 -2.821256E-05
       104   2  2.000684E-04  9.000000E+00  1.888419E-06  3.260640E-05  7.694045E-06 -1.162892E-05
       104   3  1.917474E-04  9.000009E+00  5.940871E-06  3.114125E-05 -1.103578E-06  3.765105E-06
       104   4  1.722981E-04  8.999981E+00 -1.367715E-05  3.996287E-05  8.396660E-06 -1.627076E-05
       104   5  1.717250E-04  8.999998E+00 -3.047315E-06  3.692333E-05  3.424018E-06 -6.336310E-06
       104   6  1.680374E-04  9.000009E+00  3.794609E-06  3.636625E-05 -1.548624E-06  2.408522E-06
       104   7  1.457139E-04  8.999981E+00 -1.241216E-05  4.330852E-05  9.245905E-07 -4.328959E-06
       104   8  1.473387E-04  8.999998E+00 -4.675678E-06  4.117705E-05 -2.230700E-07 -1.043700E-06
       104   9  1.470388E-04  9.000010E+00  2.048671E-06  4.152802E-05 -1.370731E-06  1.051939E-06
       104  10  2.072142E-04  9.000015E+00  1.634861E-06  3.617907E-05  6.255884E-15  2.597619E-14
       104  11  1.943153E-04  9.000011E+00  3.369048E-06  3.554632E-05 -4.612764E-15 -1.461111E-14
       104  12  1.771123E-04  8.999999E+00 -1.460453E-06  3.739602E-05 -3.245098E-15  9.781680E-15
       104  13  1.812279E-04  9.000015E+00 -8.284333E-07  3.662730E-05  1.105930E-14  1.849738E-14
       104  14  1.717728E-04  9.000011E+00  9.194460E-07  3.690261E-05  2.676673E-15 -4.736590E-15
       104  15  1.592033E-04  9.000001E+00 -1.120583E-06  3.966036E-05 -7.443343E-16  1.503941E-14
       104  16  1.604447E-04  9.000018E+00  2.922691E-06  3.701230E-05  7.014462E-15  2.679065E-14
       104  17  1.531876E-04  9.000014E+00  1.777216E-06  3.819567E-05  4.672136E-15  5.750270E-15
       104  18  1.440057E-04  9.000005E+00 -3.803884E-07  4.186148E-05  1.047105E-14  1.701717E-14
       104  19  2.040854E-04  8.999983E+00 -8.727721E-06  3.655399E-05 -1.649167E-05  2.821256E-05
       104  20  2.000684E-04  9.000000E+00  1.888419E-06  3.260640E-05 -7.694045E-06  1.162892E-05
       104  21  1.917474E-04  9.000009E+00  5.940871E-06  3.114125E-05  1.103578E-06 -3.765105E-06
       104  22  1.722981E-04  8.999981E+00 -1.367715E-05  3.996287E-05 -8.396660E-06  1.627076E-05
       104  23  1.717250E-04  8.999998E+00 -3.047315E-06  3.692333E-05 -3.424018E-06  6.336310E-06
       104  24  1.680374E-04  9.000009E+00  3.794609E-06  3.636625E-05  1.548624E-06 -2.408522E-06
       104  25  1.457139E-04  8.999981E+00 -1.241216E-05  4.330852E-05 -9.245905E-07  4.328959E-06
       104  26  1.473387E-04  8.999998E+00 -4.675678E-06  4.117705E-05  2.230700E-07  1.043700E-06
       104  27  1.470388E-04  9.000010E+00  2.048671E-06  4.152802E-05  1.370731E-06 -1.051939E-06
       105   1  1.772615E-04  9.000006E+00  2.010329E-06  3.017107E-05 -3.271633E-06  6.851699E-06
       105   2  1.633336E-04  9.000004E+00 -1.484144E-07  2.502747E-05 -1.585214E-06  2.921956E-06
       105   3  1.495909E-04  9.000002E+00 -1.367376E-06  2.274454E-05  1.012049E-07 -8.694006E-07
       105   4  1.613520E-04  9.000009E+00  3.369469E-06  3.481635E-05 -1.745648E-06  4.017418E-06
       105   5  1.510003E-04  9.000007E+00  8.647235E-07  2.929648E-05 -7.302857E-07  1.658770E-06
       105   6  1.406954E-04  9.000004E+00 -1.023144E-06  2.663728E-05  2.850763E-07 -5.614909E-07
       105   7  1.443571E-04  9.000011E+00  3.027110E-06  3.925036E-05 -4.144343E-07  1.183138E-06
       105   8  1.379711E-04  9.000009E+00  1.085300E-06  3.335422E-05 -7.012943E-08  3.955845E-07
       105   9  1.314936E-04  9.000007E+00 -5.625357E-07  3.031874E-05  2.741754E-07 -2.535813E-07
       105  10  1.759275E-04  8.999998E+00 -8.006508E-07  2.919770E-05  2.466450E-15  1.258855E-14
       105  11  1.642054E-04  9.000001E+00 -7.536743E-07  2.349892E-05  1.401986E-15 -2.044940E-14
       105  12  1.526684E-04  9.000004E+00  2.330838E-07  2.066080E-05  1.713248E-17 -1.131201E-14
       105  13  1.590465E-04  9.000001E+00  1.420983E-07  3.457823E-05  5.653983E-15  1.327725E-14
       105  14  1.509005E-04  9.000004E+00 -1.569274E-07  2.850317E-05  5.682459E-15 -2.057986E-14
       105  15  1.428013E-04  9.000006E+00  1.609251E-07  2.528878E-05  7.814372E-15 -1.994850E-14
       105  16  1.410800E-04  9.000002E+00 -6.166515E-07  3.974748E-05  1.387948E-14  1.238494E-14
       105  17  1.368997E-04  9.000006E+00 -3.527421E-07  3.329614E-05  1.049288E-14 -1.871869E-14
       105  18  1.326279E-04  9.000008E+00  2.051420E-07  2.970548E-05  1.176401E-14 -2.074744E-14
       105  19  1.772615E-04  9.000006E+00  2.010329E-06  3.017107E-05  3.271633E-06 -6.851699E-06
       105  20  1.633336E-04  9.000004E+00 -1.484144E-07  2.502747E-05  1.585214E-06 -2.921956E-06
       105  21  1.495909E-04  9.000002E+00 -1.367376E-06  2.274454E-05 -1.012049E-07  8.694005E-07
       105  22  1.613520E-04  9.000009E+00  3.369469E-06  3.481635E-05  1.745648E-06 -4.017418E-06
       105  23  1.510003E-04  9.000007E+00  8.647235E-07  2.929648E-05  7.302857E-07 -1.658770E-06
       105  24  1.406954E-04  9.000004E+00 -1.023144E-06  2.663728E-05 -2.850763E-07  5.614909E-07
       105  25  1.443571E-04  9.000011E+00  3.027110E-06  3.925036E-05  4.144343E-07 -1.183138E-06
       105  26  1.379711E-04  9.000009E+00  1.085300E-06  3.335422E-05  7.012945E-08 -3.955846E-07
       105  27  1.314936E-04  9.000007E+00 -5.625357E-07  3.031874E-05 -2.741754E-07  2.535813E-07
       106   1  1.451310E-04  9.000002E+00 -5.204523E-07  1.930600E-05  8.490643E-07 -1.650992E-06
       106   2  1.374588E-04  9.000003E+00  1.304008E-07  1.521386E-05  3.574787E-07 -6.746590E-07
       106   3  1.293836E-04  9.000002E+00  1.223413E-07  1.244527E-05 -1.341069E-07  2.400752E-07
       106   4  1.369093E-04  9.000004E+00 -7.736511E-07  2.325155E-05  5.127043E-07 -9.968899E-07
       106   5  1.309947E-04  9.000005E+00 -2.679532E-08  1.853345E-05  1.789471E-07 -4.019644E-07
       106   6  1.247386E-04  9.000005E+00  2.048787E-07  1.513890E-05 -1.548101E-07  1.313622E-07
       106   7  1.279368E-04  9.000006E+00 -9.268420E-07  2.709539E-05  2.140580E-07 -3.427879E-07
       106   8  1.237043E-04  9.000006E+00 -2.599808E-07  2.175133E-05  3.812919E-08 -1.292699E-07
       106   9  1.191919E-04  9.000006E+00  3.542935E-08  1.773081E-05 -1.377996E-07  2.264910E-08
       106  10  1.453449E-04  9.000004E+00  1.340435E-07  1.923232E-05  1.235510E-15 -6.620679E-15
       106  11  1.371587E-04  9.000003E+00  2.709574E-07  1.528165E-05  9.366484E-15 -1.563244E-14
       106  12  1.285696E-04  9.000002E+00 -2.510414E-07  1.265453E-05  1.970667E-14  1.063891E-15
       106  13  1.373707E-04  9.000006E+00 -1.305207E-08  2.300656E-05  4.774744E-15 -1.554783E-14
       106  14  1.309422E-04  9.000005E+00  2.198644E-07  1.842993E-05  8.185278E-15 -5.706732E-16
       106  15  1.241721E-04  9.000004E+00 -6.240092E-08  1.517684E-05  1.161824E-14  2.055156E-14
       106  16  1.286458E-04  9.000008E+00 -6.013986E-08  2.667908E-05  4.578623E-15 -1.130379E-14
       106  17  1.238993E-04  9.000007E+00  9.278201E-08  2.147649E-05  5.830280E-15 -1.684903E-15
       106  18  1.188730E-04  9.000006E+00 -1.257471E-07  1.759745E-05  6.704544E-15  1.537491E-14
       106  19  1.451310E-04  9.000002E+00 -5.204523E-07  1.930600E-05 -8.490644E-07  1.650992E-06
       106  20  1.374588E-04  9.000003E+00  1.304009E-07  1.521386E-05 -3.574787E-07  6.746589E-07
       106  21  1.293836E-04  9.000002E+00  1.223414E-07  1.244527E-05  1.341070E-07 -2.400752E-07
       106  22  1.369093E-04  9.000004E+00 -7.736511E-07  2.325155E-05 -5.127043E-07  9.968899E-07
       106  23  1.309947E-04  9.000005E+00 -2.679531E-08  1.853345E-05 -1.789471E-07  4.019644E-07
       106  24  1.247386E-04  9.000005E+00  2.048787E-07  1.513890E-05  1.548101E-07 -1.313621E-07
       106  25  1.279368E-04  9.000006E+00 -9.268421E-07  2.709539E-05 -2.140580E-07  3.427878E-07
       106  26  1.237043E-04  9.000006E+00 -2.599809E-07  2.175133E-05 -3.812917E-08  1.292699E-07
       106  27  1.191919E-04  9.000006E+00  3.542932E-08  1.773081E-05  1.377996E-07 -2.264906E-08
       107   1  1.257125E-04  9.000002E+00  1.603777E-08  1.052459E-05 -4.175141E-08  4.354520E-07
       107   2  1.217126E-04  9.000002E+00  6.955202E-08  7.213802E-06 -6.096465E-08  2.257432E-07
       107   3  1.174912E-04  9.000002E+00 -1.807569E-07  4.557949E-06 -8.017788E-08  6.510721E-09
       107   4  1.218272E-04  9.000004E+00  1.759220E-07  1.274973E-05 -1.505990E-08  2.411135E-07
       107   5  1.186373E-04  9.000004E+00  1.992756E-07  8.828632E-06 -3.478628E-08  1.185609E-07
       107   6  1.152353E-04  9.000004E+00 -5.897209E-08  5.562463E-06 -5.451264E-08 -1.351536E-08
       107   7  1.170210E-04  9.000006E+00  4.351307E-08  1.490911E-05  2.811586E-09  4.677495E-08
       107   8  1.146587E-04  9.000006E+00  7.786604E-08  1.037769E-05 -1.742791E-08  1.137860E-08
       107   9  1.120938E-04  9.000005E+00 -1.471603E-07  6.501210E-06 -3.766742E-08 -3.354144E-08
       107  10  1.254886E-04  9.000002E+00 -1.702548E-07  1.035671E-05  9.379331E-15 -3.922448E-15
       107  11  1.216067E-04  9.000002E+00  1.155279E-09  7.049112E-06 -7.737803E-15 -2.348994E-14
       107  12  1.175032E-04  9.000002E+00 -1.312578E-07  4.396446E-06 -8.392705E-15 -9.484776E-15
       107  13  1.216090E-04  9.000004E+00 -7.980710E-09  1.262115E-05  9.880446E-15  1.710706E-14
       107  14  1.185370E-04  9.000004E+00  1.332687E-07  8.703240E-06  2.008531E-15 -4.837047E-15
       107  15  1.152529E-04  9.000004E+00 -7.083170E-09  5.440259E-06 -1.944032E-15 -1.601121E-14
       107  16  1.168083E-04  9.000006E+00 -1.379998E-07  1.481983E-05  1.689656E-14  1.582808E-14
       107  17  1.145639E-04  9.000006E+00  1.424903E-08  1.029160E-05  1.247917E-14  1.859956E-15
       107  18  1.121169E-04  9.000005E+00 -9.288154E-08  6.418304E-06  1.020648E-14 -7.950512E-15
       107  19  1.257125E-04  9.000002E+00  1.603788E-08  1.052459E-05  4.175143E-08 -4.354521E-07
       107  20  1.217126E-04  9.000002E+00  6.955213E-08  7.213802E-06  6.096464E-08 -2.257433E-07
       107  21  1.174912E-04  9.000002E+00 -1.807569E-07  4.557949E-06  8.017787E-08 -6.510767E-09
       107  22  1.218272E-04  9.000004E+00  1.759220E-07  1.274973E-05  1.505992E-08 -2.411135E-07
       107  23  1.186373E-04  9.000004E+00  1.992756E-07  8.828632E-06  3.478627E-08 -1.185609E-07
       107  24  1.152353E-04  9.000004E+00 -5.897209E-08  5.562463E-06  5.451264E-08  1.351532E-08
       107  25  1.170210E-04  9.000006E+00  4.351299E-08  1.490911E-05 -2.811562E-09 -4.677491E-08
       107  26  1.146587E-04  9.000006E+00  7.786604E-08  1.037769E-05  1.742794E-08 -1.137859E-08
       107  27  1.120938E-04  9.000005E+00 -1.471603E-07  6.501210E-06  3.766743E-08  3.354140E-08
       108   1  1.164885E-04  9.000002E+00 -1.135405E-07  2.742871E-06  1.301218E-07 -5.625026E-08
       108   2  1.166050E-04  9.000002E+00  6.022478E-08  6.500367E-14  1.073901E-14 -5.201532E-08
       108   3  1.164885E-04  9.000002E+00 -1.135405E-07 -2.742871E-06 -1.301218E-07 -5.625038E-08
       108   4  1.143810E-04  9.000004E+00 -3.465352E-08  3.360397E-06  1.069390E-07 -5.091439E-08
       108   5  1.144933E-04  9.000004E+00  1.292301E-07  6.759974E-14 -6.654955E-15 -4.667941E-08
       108   6  1.143810E-04  9.000004E+00 -3.465351E-08 -3.360397E-06 -1.069390E-07 -5.091449E-08
       108   7  1.113728E-04  9.000005E+00 -1.623763E-07  3.977924E-06  8.375618E-08 -4.557848E-08
       108   8  1.114809E-04  9.000005E+00 -8.374368E-09  5.579015E-14 -1.018092E-14 -4.134350E-08
       108   9  1.113728E-04  9.000005E+00 -1.623763E-07 -3.977923E-06 -8.375620E-08 -4.557861E-08
       108  10  1.163733E-04  9.000002E+00 -9.893447E-08  2.722308E-06  3.616805E-15 -2.008971E-15
       108  11  1.164898E-04  9.000002E+00  7.483082E-08  3.756673E-14  1.105927E-14 -1.507146E-14
       108  12  1.163733E-04  9.000002E+00 -9.893452E-08 -2.722308E-06  9.453224E-15 -6.345429E-15
       108  13  1.143018E-04  9.000004E+00 -4.624980E-09  3.339834E-06 -1.732229E-15 -8.467308E-15
       108  14  1.144141E-04  9.000004E+00  1.592586E-07  4.774741E-14  1.907366E-15 -2.221549E-15
       108  15  1.143018E-04  9.000004E+00 -4.624997E-09 -3.339834E-06  4.185294E-15 -1.293778E-15
       108  16  1.113296E-04  9.000005E+00 -1.169252E-07  3.957360E-06 -1.204935E-15  6.380065E-16
       108  17  1.114377E-04  9.000006E+00  3.707663E-08  4.163900E-14 -1.347075E-15  6.067899E-16
       108  18  1.113296E-04  9.000005E+00 -1.169253E-07 -3.957360E-06  5.991710E-16 -1.875870E-14
       108  19  1.164885E-04  9.000002E+00 -1.135405E-07  2.742871E-06 -1.301218E-07  5.625025E-08
       108  20  1.166050E-04  9.000002E+00  6.022487E-08  4.861277E-14  6.284962E-15  5.201529E-08
       108  21  1.164885E-04  9.000002E+00 -1.135405E-07 -2.742871E-06  1.301218E-07  5.625037E-08
       108  22  1.143810E-04  9.000004E+00 -3.465351E-08  3.360397E-06 -1.069390E-07  5.091434E-08
       108  23  1.144933E-04  9.000004E+00  1.292301E-07  7.454806E-14  4.651968E-15  4.667938E-08
       108  24  1.143810E-04  9.000004E+00 -3.465352E-08 -3.360397E-06  1.069390E-07  5.091447E-08
       108  25  1.113728E-04  9.000005E+00 -1.623763E-07  3.977924E-06 -8.375618E-08  4.557846E-08
       108  26  1.114809E-04  9.000005E+00 -8.374403E-09  5.685912E-14  2.280874E-15  4.134350E-08
       108  27  1.113728E-04  9.000005E+00 -1.623763E-07 -3.977923E-06  8.375620E-08  4.557854E-08
       109   1  1.174912E-04  9.000002E+00 -1.807569E-07 -4.557949E-06  8.017786E-08  6.510581E-09
       109   2  1.217126E-04  9.000002E+00  6.955200E-08 -7.213802E-06  6.096464E-08  2.257431E-07
       109   3  1.257125E-04  9.000002E+00  1.603772E-08 -1.052459E-05  4.175141E-08  4.354521E-07
       109   4  1.152353E-04  9.000004E+00 -5.897209E-08 -5.562463E-06  5.451263E-08 -1.351550E-08
       109   5  1.186373E-04  9.000004E+00  1.992756E-07 -8.828632E-06  3.478628E-08  1.185608E-07
       109   6  1.218272E-04  9.000004E+00  1.759220E-07 -1.274973E-05  1.505991E-08  2.411135E-07
       109   7  1.120938E-04  9.000005E+00 -1.471603E-07 -6.501210E-06  3.766742E-08 -3.354159E-08
       109   8  1.146587E-04  9.000006E+00  7.786600E-08 -1.037769E-05  1.742794E-08  1.137854E-08
       109   9  1.170210E-04  9.000006E+00  4.351302E-08 -1.490911E-05 -2.811563E-09  4.677500E-08
       109  10  1.175032E-04  9.000002E+00 -1.312579E-07 -4.396446E-06 -7.142552E-16 -1.909686E-14
       109  11  1.216067E-04  9.000002E+00  1.155258E-09 -7.049112E-06 -2.076574E-15 -2.442045E-14
       109  12  1.254886E-04  9.000002E+00 -1.702549E-07 -1.035671E-05 -7.272170E-15  6.923952E-14
       109  13  1.152529E-04  9.000004E+00 -7.083188E-09 -5.440259E-06  2.655360E-15 -2.069392E-14
       109  14  1.185370E-04  9.000004E+00  1.332687E-07 -8.703240E-06  3.761858E-15 -1.055247E-14
       109  15  1.216090E-04  9.000004E+00 -7.980725E-09 -1.262115E-05 -8.803642E-17  6.286335E-14
       109  16  1.121169E-04  9.000005E+00 -9.288157E-08 -6.418304E-06  8.002870E-15 -3.375704E-14
       109  17  1.145639E-04  9.000006E+00  1.424900E-08 -1.029160E-05  1.029956E-14 -1.749759E-14
       109  18  1.168083E-04  9.000006E+00 -1.379998E-07 -1.481983E-05  4.294038E-15  3.895914E-14
       109  19  1.174912E-04  9.000002E+00 -1.807569E-07 -4.557949E-06 -8.017785E-08 -6.510621E-09
       109  20  1.217126E-04  9.000002E+00  6.955208E-08 -7.213802E-06 -6.096465E-08 -2.257432E-07
       109  21  1.257125E-04  9.000002E+00  1.603778E-08 -1.052459E-05 -4.175144E-08 -4.354519E-07
       109  22  1.152353E-04  9.000004E+00 -5.897209E-08 -5.562463E-06 -5.451262E-08  1.351545E-08
       109  23  1.186373E-04  9.000004E+00  1.992756E-07 -8.828632E-06 -3.478627E-08 -1.185609E-07
       109  24  1.218272E-04  9.000004E+00  1.759219E-07 -1.274973E-05 -1.505991E-08 -2.411134E-07
       109  25  1.120938E-04  9.000005E+00 -1.471604E-07 -6.501210E-06 -3.766741E-08  3.354149E-08
       109  26  1.146587E-04  9.000006E+00  7.786596E-08 -1.037769E-05 -1.742792E-08 -1.137857E-08
       109  27  1.170210E-04  9.000006E+00  4.351294E-08 -1.490911E-05  2.811577E-09 -4.677490E-08
       110   1  1.293836E-04  9.000002E+00  1.223412E-07 -1.244527E-05  1.341069E-07  2.400752E-07
       110   2  1.374588E-04  9.000003E+00  1.304008E-07 -1.521386E-05 -3.574787E-07 -6.746589E-07
       110   3  1.451310E-04  9.000002E+00 -5.204523E-07 -1.930600E-05 -8.490643E-07 -1.650992E-06
       110   4  1.247386E-04  9.000005E+00  2.048786E-07 -1.513890E-05  1.548101E-07  1.313622E-07
       110   5  1.309947E-04  9.000005E+00 -2.679536E-08 -1.853345E-05 -1.789471E-07 -4.019644E-07
       110   6  1.369093E-04  9.000004E+00 -7.736511E-07 -2.325155E-05 -5.127043E-07 -9.968899E-07
       110   7  1.191919E-04  9.000006E+00  3.542936E-08 -1.773081E-05  1.377996E-07  2.264918E-08
       110   8  1.237043E-04  9.000006E+00 -2.599809E-07 -2.175133E-05 -3.812918E-08 -1.292699E-07
       110   9  1.279368E-04  9.000006E+00 -9.268421E-07 -2.709539E-05 -2.140580E-07 -3.427878E-07
       110  10  1.285696E-04  9.000002E+00 -2.510414E-07 -1.265453E-05  2.371098E-15  8.154400E-14
       110  11  1.371587E-04  9.000003E+00  2.709573E-07 -1.528165E-05  7.466811E-15 -3.459707E-15
       110  12  1.453449E-04  9.000004E+00  1.340435E-07 -1.923232E-05 -7.150857E-15 -5.265100E-14
       110  13  1.241721E-04  9.000004E+00 -6.240095E-08 -1.517684E-05  6.603325E-15  6.757741E-14
       110  14  1.309422E-04  9.000005E+00  2.198644E-07 -1.842993E-05  8.245616E-15 -5.117270E-15
       110  15  1.373707E-04  9.000006E+00 -1.305210E-08 -2.300656E-05 -2.632628E-15 -5.245328E-14
       110  16  1.188730E-04  9.000006E+00 -1.257471E-07 -1.759745E-05  7.515414E-15  4.468992E-14
       110  17  1.238993E-04  9.000007E+00  9.278201E-08 -2.147649E-05  1.404313E-14 -7.430174E-15
       110  18  1.286458E-04  9.000008E+00 -6.013989E-08 -2.667909E-05  4.178324E-15 -4.577187E-14
       110  19  1.293836E-04  9.000002E+00  1.223413E-07 -1.244527E-05 -1.341069E-07 -2.400751E-07
       110  20  1.374588E-04  9.000003E+00  1.304008E-07 -1.521386E-05  3.574787E-07  6.746589E-07
       110  21  1.451310E-04  9.000002E+00 -5.204524E-07 -1.930600E-05  8.490643E-07  1.650992E-06
       110  22  1.247386E-04  9.000005E+00  2.048786E-07 -1.513890E-05 -1.548101E-07 -1.313621E-07
       110  23  1.309947E-04  9.000005E+00 -2.679534E-08 -1.853345E-05  1.789471E-07  4.019644E-07
       110  24  1.369093E-04  9.000004E+00 -7.736511E-07 -2.325155E-05  5.127043E-07  9.968898E-07
       110  25  1.191919E-04  9.000006E+00  3.542927E-08 -1.773081E-05 -1.377996E-07 -2.264909E-08
       110  26  1.237043E-04  9.000006E+00 -2.599809E-07 -2.175133E-05  3.812920E-08  1.292699E-07
       110  27  1.279368E-04  9.000006E+00 -9.268421E-07 -2.709539E-05  2.140580E-07  3.427877E-07
       111   1  1.495909E-04  9.000002E+00 -1.367376E-06 -2.274454E-05 -1.012049E-07 -8.694005E-07
       111   2  1.633336E-04  9.000004E+00 -1.484143E-07 -2.502747E-05  1.585214E-06  2.921956E-06
       111   3  1.772615E-04  9.000006E+00  2.010329E-06 -3.017107E-05  3.271633E-06  6.851699E-06
       111   4  1.406954E-04  9.000004E+00 -1.023144E-06 -2.663728E-05 -2.850763E-07 -5.614909E-07
       111   5  1.510003E-04  9.000007E+00  8.647236E-07 -2.929648E-05  7.302856E-07  1.658770E-06
       111   6  1.613520E-04  9.000009E+00  3.369469E-06 -3.481635E-05  1.745648E-06  4.017418E-06
       111   7  1.314936E-04  9.000007E+00 -5.625357E-07 -3.031874E-05 -2.741754E-07 -2.535813E-07
       111   8  1.379711E-04  9.000009E+00  1.085300E-06 -3.335422E-05  7.012944E-08  3.955845E-07
       111   9  1.443571E-04  9.000011E+00  3.027110E-06 -3.925036E-05  4.144343E-07  1.183137E-06
       111  10  1.526684E-04  9.000004E+00  2.330839E-07 -2.066080E-05 -1.653044E-14 -3.404896E-14
       111  11  1.642054E-04  9.000001E+00 -7.536743E-07 -2.349892E-05 -8.331973E-15 -2.276353E-14
       111  12  1.759275E-04  8.999998E+00 -8.006508E-07 -2.919770E-05 -5.073479E-15 -1.341280E-13
       111  13  1.428013E-04  9.000006E+00  1.609251E-07 -2.528878E-05 -5.836853E-15 -3.971830E-14
       111  14  1.509005E-04  9.000004E+00 -1.569274E-07 -2.850317E-05 -1.242153E-15 -2.564276E-14
       111  15  1.590465E-04  9.000001E+00  1.420983E-07 -3.457823E-05  4.239013E-15 -1.153276E-13
       111  16  1.326279E-04  9.000008E+00  2.051419E-07 -2.970548E-05  8.178841E-15 -3.812123E-14
       111  17  1.368997E-04  9.000006E+00 -3.527421E-07 -3.329614E-05  1.242928E-14 -2.581773E-14
       111  18  1.410800E-04  9.000002E+00 -6.166515E-07 -3.974748E-05  1.617747E-14 -8.283568E-14
       111  19  1.495909E-04  9.000002E+00 -1.367376E-06 -2.274454E-05  1.012049E-07  8.694004E-07
       111  20  1.633336E-04  9.000004E+00 -1.484144E-07 -2.502747E-05 -1.585214E-06 -2.921956E-06
       111  21  1.772615E-04  9.000006E+00  2.010329E-06 -3.017107E-05 -3.271633E-06 -6.851699E-06
       111  22  1.406954E-04  9.000004E+00 -1.023144E-06 -2.663728E-05  2.850763E-07  5.614908E-07
       111  23  1.510003E-04  9.000007E+00  8.647235E-07 -2.929648E-05 -7.302857E-07 -1.658770E-06
       111  24  1.613520E-04  9.000009E+00  3.369469E-06 -3.481635E-05 -1.745648E-06 -4.017418E-06
       111  25  1.314936E-04  9.000007E+00 -5.625357E-07 -3.031874E-05  2.741754E-07  2.535812E-07
       111  26  1.379711E-04  9.000009E+00  1.085300E-06 -3.335422E-05 -7.012942E-08 -3.955846E-07
       111  27  1.443571E-04  9.000011E+00  3.027110E-06 -3.925036E-05 -4.144343E-07 -1.183138E-06
       112   1  1.917474E-04  9.000009E+00  5.940871E-06 -3.114125E-05  1.103578E-06  3.765104E-06
       112   2  2.000684E-04  9.000000E+00  1.888419E-06 -3.260640E-05 -7.694045E-06 -1.162892E-05
       112   3  2.040854E-04  8.999983E+00 -8.727721E-06 -3.655399E-05 -1.649167E-05 -2.821256E-05
       112   4  1.680374E-04  9.000009E+00  3.794609E-06 -3.636625E-05  1.548624E-06  2.408522E-06
       112   5  1.717250E-04  8.999998E+00 -3.047315E-06 -3.692333E-05 -3.424018E-06 -6.336310E-06
       112   6  1.722981E-04  8.999981E+00 -1.367715E-05 -3.996287E-05 -8.396660E-06 -1.627076E-05
       112   7  1.470388E-04  9.000010E+00  2.048671E-06 -4.152802E-05  1.370731E-06  1.051939E-06
       112   8  1.473387E-04  8.999998E+00 -4.675678E-06 -4.117705E-05  2.230700E-07 -1.043700E-06
       112   9  1.457139E-04  8.999981E+00 -1.241216E-05 -4.330852E-05 -9.245905E-07 -4.328959E-06
       112  10  1.771123E-04  8.999999E+00 -1.460453E-06 -3.739602E-05 -2.121605E-15 -1.312737E-13
       112  11  1.943153E-04  9.000011E+00  3.369048E-06 -3.554632E-05 -4.058226E-15 -4.040557E-15
       112  12  2.072142E-04  9.000015E+00  1.634861E-06 -3.617907E-05  1.202850E-15  3.894910E-14
       112  13  1.592033E-04  9.000001E+00 -1.120583E-06 -3.966036E-05 -4.490615E-15 -1.149019E-13
       112  14  1.717728E-04  9.000011E+00  9.194461E-07 -3.690261E-05 -7.085329E-15 -4.883710E-15
       112  15  1.812279E-04  9.000015E+00 -8.284333E-07 -3.662730E-05  4.791606E-15  3.217069E-14
       112  16  1.440057E-04  9.000005E+00 -3.803883E-07 -4.186148E-05 -8.696147E-15 -8.546057E-14
       112  17  1.531876E-04  9.000014E+00  1.777216E-06 -3.819567E-05 -1.032806E-14 -1.065803E-14
       112  18  1.604447E-04  9.000018E+00  2.922691E-06 -3.701230E-05  1.277614E-14  2.175093E-14
       112  19  1.917474E-04  9.000009E+00  5.940871E-06 -3.114125E-05 -1.103578E-06 -3.765105E-06
       112  20  2.000684E-04  9.000000E+00  1.888419E-06 -3.260640E-05  7.694045E-06  1.162892E-05
       112  21  2.040854E-04  8.999983E+00 -8.727721E-06 -3.655399E-05  1.649167E-05  2.821256E-05
       112  22  1.680374E-04  9.000009E+00  3.794609E-06 -3.636625E-05 -1.548624E-06 -2.408522E-06
       112  23  1.717250E-04  8.999998E+00 -3.047315E-06 -3.692333E-05  3.424018E-06  6.336310E-06
       112  24  1.722981E-04  8.999981E+00 -1.367715E-05 -3.996287E-05  8.396660E-06  1.627076E-05
       112  25  1.470388E-04  9.000010E+00  2.048671E-06 -4.152802E-05 -1.370731E-06 -1.051939E-06
       112  26  1.473387E-04  8.999998E+00 -4.675678E-06 -4.117705E-05 -2.230700E-07  1.043700E-06
       112  27  1.457139E-04  8.999981E+00 -1.241216E-05 -4.330852E-05  9.245905E-07  4.328959E-06
       113   1  1.883296E-04  8.999982E+00 -2.464122E-05 -5.465002E-05 -1.753034E-06 -1.653292E-05
       113   2  2.052911E-04  9.000012E+00 -9.874182E-06 -2.431301E-05  3.249641E-05  4.679686E-05
       113   3  2.264255E-04  9.000018E+00  4.323549E-05  4.952253E-06  6.674585E-05  1.191759E-04
       113   4  1.657008E-04  8.999984E+00 -1.750343E-05 -4.718003E-05 -4.441482E-06 -1.070976E-05
       113   5  1.855112E-04  9.000013E+00  1.248274E-05 -2.338746E-05  1.294679E-05  2.494419E-05
       113   6  2.004452E-04  9.000009E+00  5.969665E-05 -6.666358E-07  3.033507E-05  6.964737E-05
       113   7  1.447942E-04  8.999987E+00 -8.370498E-06 -4.095985E-05 -4.046534E-06 -4.886592E-06
       113   8  1.612868E-04  9.000009E+00  2.244561E-05 -2.371171E-05 -3.519430E-06  3.091520E-06
       113   9  1.638537E-04  8.999988E+00  4.937458E-05 -7.535323E-06 -2.992326E-06  2.011887E-05
       113  10  2.573934E-04  9.000025E+00  9.125262E-06 -2.370929E-05  3.031027E-15 -4.771350E-16
       113  11  2.362820E-04  8.999967E+00 -1.418065E-05 -9.411624E-06 -8.291221E-15 -5.857385E-14
       113  12  2.193434E-04  8.999884E+00  8.560620E-07  3.814300E-06 -1.470508E-14 -3.306002E-14
       113  13  2.066957E-04  9.000015E+00  4.233551E-06 -2.893029E-05  1.592572E-14  1.385849E-14
       113  14  1.884332E-04  8.999955E+00 -3.853238E-06 -2.117706E-05  2.054516E-15 -3.331357E-14
       113  15  1.652943E-04  8.999862E+00  5.287718E-06 -1.449558E-05 -5.149709E-15 -3.727102E-14
       113  16  1.577204E-04  9.000006E+00  1.336975E-06 -3.540109E-05  2.436032E-14  1.235046E-14
       113  17  1.361400E-04  8.999939E+00 -5.919873E-06 -3.419230E-05 -5.620702E-17 -1.927633E-14
       113  18  1.006339E-04  8.999830E+00 -1.706386E-05 -3.405525E-05 -7.071109E-15 -5.321068E-14
       113  19  1.883296E-04  8.999982E+00 -2.464122E-05 -5.465002E-05  1.753034E-06  1.653292E-05
       113  20  2.052911E-04  9.000012E+00 -9.874182E-06 -2.431301E-05 -3.249641E-05 -4.679686E-05
       113  21  2.264255E-04  9.000018E+00  4.323549E-05  4.952253E-06 -6.674585E-05 -1.191759E-04
       113  22  1.657008E-04  8.999984E+00 -1.750343E-05 -4.718003E-05  4.441482E-06  1.070976E-05
       113  23  1.855112E-04  9.000013E+00  1.248274E-05 -2.338746E-05 -1.294679E-05 -2.494419E-05
       113  24  2.004452E-04  9.000009E+00  5.969665E-05 -6.666358E-07 -3.033507E-05 -6.964737E-05
       113  25  1.447942E-04  8.999987E+00 -8.370498E-06 -4.095985E-05  4.046534E-06  4.886592E-06
       113  26  1.612868E-04  9.000009E+00  2.244561E-05 -2.371171E-05  3.519430E-06 -3.091520E-06
       113  27  1.638537E-04  8.999988E+00  4.937458E-05 -7.535323E-06  2.992326E-06 -2.011887E-05
       114   1  3.451482E-04  9.000039E+00  1.056737E-04  3.758428E-05  4.203688E-05  6.586391E-05
       114   2  4.127885E-04  8.999773E+00  5.540663E-05  7.528463E-05 -1.619549E-04 -2.017054E-04
       114   3  3.165069E-04  8.999111E+00 -1.446227E-04  8.692366E-05 -3.659466E-04 -4.787913E-04
       114   4  2.025972E-04  8.999982E+00  5.738464E-05  2.982517E-05  3.867534E-05  4.263798E-05
       114   5  2.247314E-04  8.999722E+00 -3.714974E-05  4.440831E-05 -6.651680E-05 -1.068669E-04
       114   6  9.246040E-05  8.999075E+00 -2.592410E-04  3.293013E-05 -1.717089E-04 -2.658884E-04
       114   7  1.137831E-04  8.999945E+00  1.760429E-05  2.830548E-05  2.527163E-05  1.941206E-05
       114   8  1.104956E-04  8.999710E+00 -7.433395E-05  1.977141E-05  1.887910E-05 -1.202842E-05
       114   9 -3.768045E-05  8.999098E+00 -2.716238E-04 -1.482397E-05  1.248656E-05 -5.298546E-05
       114  10  4.967237E-05  8.999846E+00 -4.079074E-05 -8.478827E-05 -1.855421E-14 -3.814721E-15
       114  11  2.727299E-04  8.999943E+00  6.435954E-05  3.058049E-05 -1.630093E-14  1.169804E-14
       114  12  3.318657E-04  8.999643E+00  1.974756E-05  1.198879E-04 -1.379696E-14  5.296939E-14
       114  13  4.304102E-05  8.999848E+00 -3.082850E-05 -4.074160E-05 -1.002157E-14 -2.046868E-14
       114  14  2.205926E-04  8.999950E+00  3.005447E-05  5.150995E-05 -1.189156E-14  2.812849E-15
       114  15  2.437389E-04  8.999666E+00 -3.661948E-05  1.177002E-04 -7.951004E-15  3.226374E-14
       114  16  9.014664E-05  8.999869E+00 -1.235754E-05  9.544498E-06 -3.328330E-15 -4.046408E-14
       114  17  2.422766E-04  8.999997E+00  5.112157E-05  7.867884E-05  3.806444E-15  8.541971E-15
       114  18  2.495178E-04  8.999747E+00  9.249065E-06  1.217519E-04  2.096643E-15  2.953593E-14
       114  19  3.451482E-04  9.000039E+00  1.056737E-04  3.758428E-05 -4.203688E-05 -6.586391E-05
       114  20  4.127885E-04  8.999773E+00  5.540663E-05  7.528463E-05  1.619549E-04  2.017054E-04
       114  21  3.165069E-04  8.999111E+00 -1.446227E-04  8.692366E-05  3.659466E-04  4.787913E-04
       114  22  2.025972E-04  8.999982E+00  5.738464E-05  2.982517E-05 -3.867534E-05 -4.263798E-05
       114  23  2.247314E-04  8.999722E+00 -3.714974E-05  4.440831E-05  6.651680E-05  1.068669E-04
       114  24  9.246040E-05  8.999075E+00 -2.592410E-04  3.293013E-05  1.717089E-04  2.658884E-04
       114  25  1.137831E-04  8.999945E+00  1.760429E-05  2.830548E-05 -2.527163E-05 -1.941206E-05
       114  26  1.104956E-04  8.999710E+00 -7.433395E-05  1.977141E-05 -1.887910E-05  1.202842E-05
       114  27 -3.768045E-05  8.999098E+00 -2.716238E-04 -1.482397E-05 -1.248656E-05  5.298546E-05
       115   1 -7.608660E-04  8.998708E+00 -5.906085E-04 -6.986952E-04 -3.376100E-04 -4.680152E-04
       115   2 -3.298258E-04  8.999672E+00 -1.916347E-04 -2.936985E-04 -1.298025E-04 -1.470905E-04
       115   3 -8.983945E-05  9.000159E+00  4.806750E-05  3.513273E-05  7.800509E-05  1.748626E-04
       115   4 -3.329567E-04  8.998934E+00 -4.233466E-04 -4.654328E-04 -1.597568E-04 -2.639355E-04
       115   5 -7.272711E-05  8.999730E+00 -9.541424E-05 -2.122620E-04 -7.253586E-05 -9.139612E-05
       115   6 -4.579761E-06  9.000048E+00  7.084694E-05 -3.525684E-05  1.468503E-05  8.217161E-05
       115   7 -1.210241E-05  8.999133E+00 -2.385603E-04 -2.505781E-04  2.686239E-05 -5.985577E-05
       115   8  5.978472E-05  8.999744E+00 -2.257693E-05 -1.492334E-04 -6.503375E-06 -3.570179E-05
       115   9 -6.143873E-05  8.999874E+00  2.933573E-05 -1.240543E-04 -3.986914E-05 -1.051943E-05
       115  10 -2.054375E-04  8.999455E+00 -1.999744E-04 -4.282015E-04 -1.699673E-15  4.460907E-14
       115  11  3.894592E-05  8.999984E+00  1.234263E-05 -1.140303E-04  4.949338E-15 -4.810340E-15
       115  12  9.227546E-05  9.000035E+00  6.538801E-05  1.239752E-04 -1.155366E-14  2.630128E-14
       115  13  6.352701E-05  8.999613E+00 -1.008317E-04 -2.571579E-04  1.196666E-15  1.758574E-14
       115  14  1.370998E-04  8.999973E+00  4.044385E-05 -9.481282E-05 -7.476440E-17 -8.078548E-16
       115  15  1.859029E-05  8.999855E+00  2.004822E-05 -8.633284E-06 -1.355082E-14  2.965750E-14
       115  16  2.254364E-04  8.999744E+00  1.583538E-05 -1.045222E-04 -4.533128E-16  1.936101E-14
       115  17  1.106667E-04  8.999919E+00  4.516193E-05 -9.400316E-05 -5.003082E-15  8.119133E-15
       115  18 -1.972135E-04  8.999614E+00 -8.958222E-05 -1.596496E-04 -1.730825E-14  2.190529E-14
       115  19 -7.608660E-04  8.998708E+00 -5.906085E-04 -6.986952E-04  3.376100E-04  4.680152E-04
       115  20 -3.298258E-04  8.999672E+00 -1.916347E-04 -2.936985E-04  1.298025E-04  1.470905E-04
       115  21 -8.983945E-05  9.000159E+00  4.806750E-05  3.513273E-05 -7.800509E-05 -1.748626E-04
       115  22 -3.329567E-04  8.998934E+00 -4.233466E-04 -4.654328E-04  1.597568E-04  2.639355E-04
       115  23 -7.272711E-05  8.999730E+00 -9.541424E-05 -2.122620E-04  7.253586E-05  9.139612E-05
       115  24 -4.579761E-06  9.000048E+00  7.084694E-05 -3.525684E-05 -1.468503E-05 -8.217161E-05
       115  25 -1.210241E-05  8.999133E+00 -2.385603E-04 -2.505781E-04 -2.686239E-05  5.985577E-05
       115  26  5.978472E-05  8.999744E+00 -2.257693E-05 -1.492334E-04  6.503375E-06  3.570179E-05
       115  27 -6.143873E-05  8.999874E+00  2.933573E-05 -1.240543E-04  3.986914E-05  1.051943E-05
       201   1 -6.563753E-05  8.999840E+00  2.006782E-05  9.264771E-05  4.425739E-05 -1.000606E-05
       201   2  5.875946E-05  8.999677E+00 -2.047561E-05  1.364056E-04 -1.502535E-05 -7.354880E-06
       201   3  2.178636E-04  8.999571E+00 -2.531493E-06  1.293453E-04 -7.430809E-05  7.823571E-06
       201   4 -1.595083E-05  8.999764E+00  2.902552E-06  7.089984E-05  1.523551E-05 -4.838211E-06
       201   5  7.489627E-05  8.999668E+00  4.123650E-06  1.055104E-04 -1.252405E-05 -2.015547E-06
       201   6  1.879233E-04  8.999616E+00  3.460200E-05  8.930281E-05 -4.028361E-05  1.333439E-05
       201   7  1.557636E-05  8.999685E+00 -7.397294E-06  6.148856E-05 -6.359950E-06  3.296374E-07
       201   8  5.802071E-05  8.999640E+00  9.316697E-07  8.695180E-05 -2.596326E-06  3.323787E-06
       201   9  1.101177E-04  8.999628E+00  9.287581E-06  6.159687E-05  1.167299E-06  1.884521E-05
       201  10 -1.172764E-04  8.999845E+00  6.202793E-06  9.078840E-05  5.274738E-15  6.294940E-14
       201  11 -9.395925E-06  8.999644E+00 -5.085718E-05  1.534910E-04  4.859851E-15 -3.242293E-15
       201  12  1.331917E-04  8.999499E+00 -4.942960E-05  1.653753E-04 -7.414344E-15  2.637808E-14
       201  13 -3.443652E-05  8.999784E+00  3.246023E-06  6.353502E-05 -1.207277E-15  3.136635E-14
       201  14  3.989404E-05  8.999649E+00 -1.204942E-05  1.170903E-04  1.941964E-15 -1.069956E-15
       201  15  1.364045E-04  8.999558E+00  1.912385E-06  1.198273E-04  5.803914E-15  2.625045E-14
       201  16  3.024383E-05  8.999719E+00  7.154672E-06  4.861822E-05 -3.561139E-15 -5.803246E-15
       201  17  5.617163E-05  8.999636E+00 -1.032905E-06  9.302613E-05  1.267288E-16  2.041599E-15
       201  18  9.175206E-05  8.999584E+00 -9.193534E-06  8.661586E-05  8.404577E-15  5.224839E-15
       201  19 -6.563753E-05  8.999840E+00  2.006782E-05  9.264771E-05 -4.425739E-05  1.000606E-05
       201  20  5.875946E-05  8.999677E+00 -2.047561E-05  1.364056E-04  1.502535E-05  7.354880E-06
       201  21  2.178636E-04  8.999571E+00 -2.531493E-06  1.293453E-04  7.430809E-05 -7.823571E-06
       201  22 -1.595083E-05  8.999764E+00  2.902552E-06  7.089984E-05 -1.523551E-05  4.838211E-06
       201  23  7.489627E-05  8.999668E+00  4.123651E-06  1.055104E-04  1.252405E-05  2.015547E-06
       201  24  1.879233E-04  8.999616E+00  3.460200E-05  8.930281E-05  4.028361E-05 -1.333439E-05
       201  25  1.557636E-05  8.999685E+00 -7.397295E-06  6.148856E-05  6.359950E-06 -3.296374E-07
       201  26  5.802071E-05  8.999640E+00  9.316697E-07  8.695180E-05  2.596326E-06 -3.323787E-06
       201  27  1.101177E-04  8.999628E+00  9.287581E-06  6.159687E-05 -1.167299E-06 -1.884521E-05
       202   1  1.240916E-04  8.999551E+00 -5.316728E-05 -4.140231E-05 -5.338657E-05  8.994249E-06
       202   2  9.958673E-05  8.999737E+00 -5.235078E-05 -4.205351E-05 -3.419007E-05 -1.486815E-06
       202   3  7.677810E-05  8.999888E+00 -1.187444E-05 -3.099889E-05 -1.499357E-05  1.604110E-06
       202   4  1.344541E-04  8.999624E+00  7.195757E-06 -2.486894E-05 -2.014980E-05  1.352646E-05
       202   5  1.103180E-04  8.999773E+00 -4.924835E-06 -3.128961E-05 -1.181638E-05 -4.890602E-07
       202   6  7.430624E-05  8.999874E+00 -9.053565E-06 -2.600444E-05 -3.482960E-06 -9.325935E-07
       202   7  1.275399E-04  8.999677E+00  1.672661E-05 -1.464100E-05  7.007962E-06  1.805867E-05
       202   8  1.159307E-04  8.999802E+00  2.003764E-05 -2.683113E-05  4.478300E-06  5.086943E-07
       202   9  7.887379E-05  8.999865E+00 -3.274346E-07 -2.731542E-05  1.948638E-06 -3.469296E-06
       202  10  1.474213E-04  8.999522E+00 -5.491218E-05 -2.104007E-05 -2.185157E-14  2.713377E-14
       202  11  1.326180E-04  8.999730E+00 -4.439417E-05 -3.492808E-05 -1.647376E-14 -1.285949E-14
       202  12  1.195109E-04  8.999904E+00  5.783678E-06 -3.711027E-05 -6.957744E-15  4.183938E-14
       202  13  1.346194E-04  8.999585E+00 -4.476750E-06 -1.272869E-06  3.526717E-15  1.998439E-14
       202  14  1.201848E-04  8.999757E+00 -6.895831E-06 -2.093034E-05 -1.666975E-15 -8.294718E-15
       202  15  9.387458E-05  8.999881E+00 -1.323050E-06 -2.888198E-05  7.831509E-16  2.250724E-14
       202  16  1.045408E-04  8.999628E+00 -4.873502E-06  1.218891E-05  1.393629E-14  2.768941E-15
       202  17  1.026331E-04  8.999775E+00  8.139042E-06 -1.323802E-05  5.544712E-15 -7.779231E-15
       202  18  7.527772E-05  8.999861E+00 -2.524524E-06 -2.695912E-05  2.690337E-15  5.618743E-15
       202  19  1.240916E-04  8.999551E+00 -5.316728E-05 -4.140231E-05  5.338657E-05 -8.994249E-06
       202  20  9.958673E-05  8.999737E+00 -5.235078E-05 -4.205351E-05  3.419007E-05  1.486815E-06
       202  21  7.677810E-05  8.999888E+00 -1.187444E-05 -3.099889E-05  1.499357E-05 -1.604109E-06
       202  22  1.344541E-04  8.999624E+00  7.195757E-06 -2.486894E-05  2.014980E-05 -1.352646E-05
       202  23  1.103180E-04  8.999773E+00 -4.924835E-06 -3.128961E-05  1.181638E-05  4.890602E-07
       202  24  7.430624E-05  8.999874E+00 -9.053565E-06 -2.600444E-05  3.482960E-06  9.325935E-07
       202  25  1.275399E-04  8.999677E+00  1.672661E-05 -1.464100E-05 -7.007962E-06 -1.805867E-05
       202  26  1.159307E-04  8.999802E+00  2.003764E-05 -2.683113E-05 -4.478300E-06 -5.086943E-07
       202  27  7.887379E-05  8.999865E+00 -3.274346E-07 -2.731542E-05 -1.948638E-06  3.469296E-06
       203   1  1.355018E-04  8.999962E+00  2.929115E-05  9.237761E-06  1.007010E-05  4.046059E-06
       203   2  1.355125E-04  8.999983E+00  1.152636E-05  2.461341E-05  6.261566E-06  1.077462E-06
       203   3  1.317610E-04  8.999989E+00 -3.768455E-06  3.825971E-05  2.453028E-06 -1.130067E-06
       203   4  9.625998E-05  8.999923E+00  3.781144E-06  3.400138E-06  3.971264E-06  1.038734E-06
       203   5  1.041897E-04  8.999963E+00  9.033700E-07  1.982383E-05  2.124500E-06 -1.269505E-08
       203   6  1.075961E-04  8.999987E+00 -1.280254E-06  3.451819E-05  2.777357E-07 -3.030558E-07
       203   7  6.800234E-05  8.999891E+00 -8.966345E-06 -9.869946E-08 -7.092833E-07 -1.968591E-06
       203   8  8.101449E-05  8.999947E+00 -3.575803E-06  1.737305E-05 -5.942739E-07 -1.102852E-06
       203   9  8.874226E-05  8.999986E+00  7.330641E-07  3.311545E-05 -4.792645E-07  5.239552E-07
       203  10  1.349448E-04  8.999964E+00  2.983770E-05  7.171717E-06  5.209915E-15  5.010581E-14
       203  11  1.339211E-04  8.999983E+00  1.103856E-05  2.373329E-05  1.403714E-14 -2.035536E-15
       203  12  1.291353E-04  8.999986E+00 -5.290594E-06  3.856552E-05  8.346274E-15  1.816883E-14
       203  13  9.777831E-05  8.999926E+00  5.217140E-06  9.893120E-07  5.911267E-15  2.628559E-14
       203  14  1.046737E-04  8.999964E+00  1.305022E-06  1.859894E-05  7.155354E-15  4.005530E-15
       203  15  1.070458E-04  8.999985E+00 -1.912946E-06  3.447922E-05  3.349585E-15  2.850187E-14
       203  16  7.159605E-05  8.999895E+00 -6.640902E-06 -2.854306E-06  4.061342E-15  5.175976E-15
       203  17  8.357385E-05  8.999949E+00 -2.284704E-06  1.580337E-05  6.281565E-15  4.877213E-15
       203  18  9.026728E-05  8.999986E+00  9.898190E-07  3.273171E-05  1.259316E-14  3.458237E-14
       203  19  1.355018E-04  8.999962E+00  2.929115E-05  9.237761E-06 -1.007010E-05 -4.046059E-06
       203  20  1.355125E-04  8.999983E+00  1.152636E-05  2.461341E-05 -6.261566E-06 -1.077462E-06
       203  21  1.317610E-04  8.999989E+00 -3.768455E-06  3.825971E-05 -2.453028E-06  1.130067E-06
       203  22  9.625998E-05  8.999923E+00  3.781144E-06  3.400138E-06 -3.971264E-06 -1.038734E-06
       203  23  1.041897E-04  8.999963E+00  9.033700E-07  1.982383E-05 -2.124500E-06  1.269508E-08
       203  24  1.075961E-04  8.999987E+00 -1.280254E-06  3.451819E-05 -2.777357E-07  3.030558E-07
       203  25  6.800234E-05  8.999891E+00 -8.966345E-06 -9.869950E-08  7.092833E-07  1.968591E-06
       203  26  8.101449E-05  8.999947E+00 -3.575803E-06  1.737305E-05  5.942739E-07  1.102852E-06
       203  27  8.874226E-05  8.999986E+00  7.330641E-07  3.311545E-05  4.792646E-07 -5.239551E-07
       204   1  1.371008E-04  8.999994E+00 -4.234509E-06  4.293219E-05 -8.428410E-07 -1.350150E-06
       204   2  1.364895E-04  9.000003E+00 -2.195305E-06  4.130606E-05 -8.721519E-07 -4.815918E-07
       204   3  1.353164E-04  9.000009E+00  7.113072E-07  4.206005E-05 -9.014629E-07  2.453883E-07
       204   4  1.160158E-04  8.999997E+00  1.009507E-06  4.065659E-05 -1.659128E-07 -1.616117E-07
       204   5  1.169439E-04  9.000004E+00 -2.908758E-07  4.028987E-05 -1.770062E-07  3.216428E-08
       204   6  1.174519E-04  9.000008E+00 -3.935002E-07  4.230328E-05 -1.880996E-07  8.436207E-08
       204   7  9.610587E-05  8.999999E+00  2.982133E-06  3.813046E-05  1.640009E-08  1.026927E-06
       204   8  9.956265E-05  9.000005E+00  6.503691E-07  3.902316E-05  2.352425E-08  5.459203E-07
       204   9  1.027408E-04  9.000009E+00 -1.532874E-07  4.229598E-05  3.064840E-08 -7.666416E-08
       204  10  1.368733E-04  8.999992E+00 -4.842027E-06  4.214793E-05  2.447149E-15  2.354043E-14
       204  11  1.366157E-04  9.000002E+00 -2.449069E-06  4.058855E-05  4.737052E-15 -1.005405E-15
       204  12  1.357963E-04  9.000009E+00  8.112979E-07  4.140930E-05  1.010061E-14  5.638903E-15
       204  13  1.159051E-04  8.999995E+00  4.520552E-07  3.999024E-05  3.283931E-15  3.552832E-14
       204  14  1.171869E-04  9.000003E+00 -4.945732E-07  3.969028E-05  1.544139E-15  2.874636E-15
       204  15  1.180486E-04  9.000008E+00 -2.434432E-07  4.177044E-05  8.074777E-15  2.151703E-15
       204  16  9.611196E-05  8.999997E+00  2.474748E-06  3.758203E-05  1.313942E-14  3.155014E-14
       204  17  9.992249E-05  9.000005E+00  4.967379E-07  3.854149E-05  1.199334E-14  2.853141E-15
       204  18  1.034544E-04  9.000009E+00  4.683582E-08  4.188106E-05  1.051309E-14  3.981715E-15
       204  19  1.371008E-04  8.999994E+00 -4.234509E-06  4.293219E-05  8.428410E-07  1.350150E-06
       204  20  1.364895E-04  9.000003E+00 -2.195305E-06  4.130606E-05  8.721520E-07  4.815918E-07
       204  21  1.353164E-04  9.000009E+00  7.113072E-07  4.206005E-05  9.014629E-07 -2.453883E-07
       204  22  1.160158E-04  8.999997E+00  1.009507E-06  4.065659E-05  1.659128E-07  1.616118E-07
       204  23  1.169439E-04  9.000004E+00 -2.908758E-07  4.028987E-05  1.770062E-07 -3.216427E-08
       204  24  1.174519E-04  9.000008E+00 -3.935002E-07  4.230328E-05  1.880996E-07 -8.436207E-08
       204  25  9.610587E-05  8.999999E+00  2.982133E-06  3.813046E-05 -1.640008E-08 -1.026926E-06
       204  26  9.956265E-05  9.000005E+00  6.503691E-07  3.902316E-05 -2.352422E-08 -5.459203E-07
       204  27  1.027408E-04  9.000009E+00 -1.532874E-07  4.229598E-05 -3.064838E-08  7.666417E-08
       205   1  1.339044E-04  9.000010E+00  1.471938E-06  4.000935E-05 -6.990477E-08  3.681035E-07
       205   2  1.299114E-04  9.000010E+00  5.287411E-07  3.510400E-05  5.521261E-08  1.435367E-07
       205   3  1.258668E-04  9.000009E+00 -1.277933E-07  3.168935E-05  1.803300E-07 -9.758328E-08
       205   4  1.183468E-04  9.000010E+00  1.921590E-07  4.044916E-05 -3.989736E-08  6.322876E-08
       205   5  1.168711E-04  9.000011E+00 -9.514894E-08  3.582673E-05  3.041095E-09  1.910991E-08
       205   6  1.153604E-04  9.000011E+00 -5.717041E-08  3.269500E-05  4.597957E-08 -4.156200E-08
       205   7  1.037005E-04  9.000010E+00 -2.437587E-07  4.095119E-05  6.992900E-08 -2.416460E-07
       205   8  1.045824E-04  9.000012E+00 -2.476660E-07  3.661167E-05  3.068854E-08 -1.053168E-07
       205   9  1.054459E-04  9.000014E+00  1.123371E-07  3.376286E-05 -8.551912E-09  1.445923E-08
       205  10  1.341599E-04  9.000010E+00  1.538443E-06  3.976594E-05  1.521291E-14 -1.944461E-15
       205  11  1.301903E-04  9.000010E+00  6.186572E-07  3.480516E-05  1.110698E-14 -2.751726E-14
       205  12  1.261691E-04  9.000009E+00 -1.446585E-08  3.133509E-05  1.164373E-14 -2.711753E-14
       205  13  1.185053E-04  9.000010E+00  2.170937E-07  4.021355E-05  1.163454E-14 -7.251403E-16
       205  14  1.170530E-04  9.000011E+00 -4.680290E-08  3.553570E-05  8.914218E-15 -2.264706E-14
       205  15  1.155657E-04  9.000011E+00  1.458703E-08  3.234854E-05  1.076616E-14 -7.059476E-15
       205  16  1.037620E-04  9.000010E+00 -2.603940E-07  4.072338E-05  8.652755E-15  1.585735E-15
       205  17  1.046673E-04  9.000012E+00 -2.408900E-07  3.632844E-05  7.047786E-15 -1.785574E-14
       205  18  1.055542E-04  9.000014E+00  1.425244E-07  3.342420E-05  9.438808E-15  7.492281E-16
       205  19  1.339044E-04  9.000010E+00  1.471938E-06  4.000935E-05  6.990480E-08 -3.681035E-07
       205  20  1.299114E-04  9.000010E+00  5.287411E-07  3.510400E-05 -5.521258E-08 -1.435367E-07
       205  21  1.258668E-04  9.000009E+00 -1.277933E-07  3.168935E-05 -1.803300E-07  9.758324E-08
       205  22  1.183468E-04  9.000010E+00  1.921590E-07  4.044916E-05  3.989738E-08 -6.322877E-08
       205  23  1.168711E-04  9.000011E+00 -9.514895E-08  3.582673E-05 -3.041078E-09 -1.910995E-08
       205  24  1.153604E-04  9.000011E+00 -5.717040E-08  3.269500E-05 -4.597954E-08  4.156202E-08
       205  25  1.037005E-04  9.000010E+00 -2.437586E-07  4.095119E-05 -6.992899E-08  2.416460E-07
       205  26  1.045824E-04  9.000012E+00 -2.476660E-07  3.661167E-05 -3.068853E-08  1.053168E-07
       205  27  1.054459E-04  9.000014E+00  1.123371E-07  3.376286E-05  8.551925E-09 -1.445922E-08
       206   1  1.230271E-04  9.000008E+00 -4.054115E-07  2.832727E-05  1.215789E-07 -1.301508E-07
       206   2  1.195180E-04  9.000008E+00 -5.575214E-08  2.290686E-05  1.086130E-08 -2.208027E-08
       206   3  1.158270E-04  9.000008E+00  6.341882E-08  1.870169E-05 -9.985630E-08  3.670087E-08
       206   4  1.141898E-04  9.000011E+00 -4.685804E-09  2.953253E-05  5.551023E-08 -3.802743E-08
       206   5  1.120750E-04  9.000011E+00  5.044108E-08  2.400954E-05  1.106194E-08  1.365990E-08
       206   6  1.098277E-04  9.000010E+00 -9.911697E-09  1.970179E-05 -3.338636E-08  1.605778E-08
       206   7  1.051505E-04  9.000014E+00  1.049408E-07  3.061209E-05 -4.551961E-08  5.409597E-08
       206   8  1.045000E-04  9.000013E+00  2.868742E-08  2.498653E-05 -2.369860E-08  4.940006E-08
       206   9  1.037662E-04  9.000013E+00 -4.803690E-08  2.057620E-05 -1.877579E-09 -4.585299E-09
       206  10  1.228407E-04  9.000008E+00 -4.950925E-07  2.802947E-05  3.357951E-15 -2.073252E-14
       206  11  1.193469E-04  9.000008E+00 -1.302017E-07  2.267725E-05  7.355669E-16 -8.899016E-15
       206  12  1.156711E-04  9.000008E+00  4.200798E-09  1.854026E-05  4.241966E-15  1.147261E-14
       206  13  1.141227E-04  9.000011E+00 -4.322771E-08  2.923980E-05  2.825410E-15 -1.590305E-15
       206  14  1.120232E-04  9.000011E+00  2.713069E-08  2.378500E-05 -7.609181E-17 -4.514842E-15
       206  15  1.097911E-04  9.000010E+00 -1.799054E-08  1.954544E-05 -5.365749E-17  1.473254E-14
       206  16  1.052027E-04  9.000014E+00  1.175381E-07  3.032444E-05  4.424110E-15  4.177107E-15
       206  17  1.045675E-04  9.000013E+00  5.651617E-08  2.476707E-05  1.501696E-15  6.606984E-16
       206  18  1.038489E-04  9.000013E+00 -4.976612E-09  2.042493E-05  2.541389E-15  3.414721E-14
       206  19  1.230271E-04  9.000008E+00 -4.054115E-07  2.832727E-05 -1.215789E-07  1.301508E-07
       206  20  1.195180E-04  9.000008E+00 -5.575212E-08  2.290686E-05 -1.086129E-08  2.208024E-08
       206  21  1.158270E-04  9.000008E+00  6.341883E-08  1.870169E-05  9.985631E-08 -3.670082E-08
       206  22  1.141898E-04  9.000011E+00 -4.685818E-09  2.953253E-05 -5.551022E-08  3.802743E-08
       206  23  1.120750E-04  9.000011E+00  5.044108E-08  2.400954E-05 -1.106193E-08 -1.365990E-08
       206  24  1.098277E-04  9.000010E+00 -9.911632E-09  1.970179E-05  3.338635E-08 -1.605773E-08
       206  25  1.051505E-04  9.000014E+00  1.049408E-07  3.061209E-05  4.551963E-08 -5.409595E-08
       206  26  1.045000E-04  9.000013E+00  2.868743E-08  2.498653E-05  2.369860E-08 -4.940005E-08
       206  27  1.037662E-04  9.000013E+00 -4.803680E-08  2.057620E-05  1.877582E-09  4.585363E-09
       207   1  1.140908E-04  9.000008E+00  4.708508E-08  1.573950E-05  7.479500E-09  4.089180E-08
       207   2  1.121337E-04  9.000007E+00  5.309531E-08  1.104369E-05 -1.262185E-08  2.701681E-08
       207   3  1.101229E-04  9.000007E+00 -4.693640E-08  6.901656E-06 -3.272319E-08  1.110883E-08
       207   4  1.088584E-04  9.000010E+00  6.805119E-09  1.661554E-05  1.325361E-08  7.159077E-09
       207   5  1.076323E-04  9.000010E+00  5.034472E-08  1.168893E-05 -5.859819E-09  4.684880E-09
       207   6  1.063546E-04  9.000009E+00 -7.414120E-09  7.316095E-06 -2.497323E-08  1.777114E-10
       207   7  1.032816E-04  9.000012E+00 -8.374166E-08  1.744717E-05  2.198828E-08 -2.657364E-08
       207   8  1.027807E-04  9.000012E+00 -1.648868E-08  1.228975E-05  3.862786E-09 -1.764707E-08
       207   9  1.022301E-04  9.000011E+00 -4.579049E-08  7.686119E-06 -1.426273E-08 -1.075344E-08
       207  10  1.140582E-04  9.000008E+00  4.427014E-08  1.566075E-05  1.503316E-14  1.193719E-14
       207  11  1.121072E-04  9.000007E+00  5.644500E-08  1.096644E-05  1.008194E-14 -7.037327E-15
       207  12  1.101026E-04  9.000007E+00 -3.742211E-08  6.825909E-06  1.068690E-14 -2.024797E-14
       207  13  1.088284E-04  9.000010E+00  5.117688E-09  1.653884E-05  5.370448E-15  1.944798E-14
       207  14  1.076085E-04  9.000010E+00  5.482187E-08  1.161373E-05  3.963275E-15 -8.071929E-15
       207  15  1.063370E-04  9.000009E+00  3.227688E-09  7.242403E-06  1.766877E-15 -1.154382E-14
       207  16  1.032542E-04  9.000012E+00 -8.430161E-08  1.737252E-05  4.246137E-15  2.931311E-14
       207  17  1.027595E-04  9.000012E+00 -1.088402E-08  1.221661E-05 -2.805497E-15 -9.999858E-15
       207  18  1.022151E-04  9.000011E+00 -3.402125E-08  7.614482E-06 -4.518255E-15 -1.258987E-14
       207  19  1.140908E-04  9.000008E+00  4.708504E-08  1.573950E-05 -7.479480E-09 -4.089179E-08
       207  20  1.121337E-04  9.000007E+00  5.309527E-08  1.104369E-05  1.262186E-08 -2.701682E-08
       207  21  1.101229E-04  9.000007E+00 -4.693646E-08  6.901656E-06  3.272320E-08 -1.110887E-08
       207  22  1.088584E-04  9.000010E+00  6.805162E-09  1.661554E-05 -1.325361E-08 -7.159049E-09
       207  23  1.076323E-04  9.000010E+00  5.034468E-08  1.168893E-05  5.859812E-09 -4.684878E-09
       207  24  1.063546E-04  9.000009E+00 -7.414148E-09  7.316095E-06  2.497324E-08 -1.777239E-10
       207  25  1.032816E-04  9.000012E+00 -8.374160E-08  1.744717E-05 -2.198828E-08  2.657369E-08
       207  26  1.027807E-04  9.000012E+00 -1.648867E-08  1.228975E-05 -3.862777E-09  1.764705E-08
       207  27  1.022301E-04  9.000011E+00 -4.579057E-08  7.686119E-06  1.426272E-08  1.075343E-08
       208   1  1.095222E-04  9.000007E+00 -5.775121E-08  4.222434E-06  6.836791E-08  8.270653E-09
       208   2  1.095533E-04  9.000007E+00  1.640065E-08  5.856439E-14 -9.047842E-16  1.152981E-08
       208   3  1.095222E-04  9.000007E+00 -5.775127E-08 -4.222434E-06 -6.836791E-08  8.270497E-09
       208   4  1.059867E-04  9.000009E+00 -9.926979E-10  4.483395E-06  3.866900E-08  6.570837E-10
       208   5  1.060146E-04  9.000009E+00  6.555437E-08  6.006604E-14 -3.893213E-15  3.916233E-09
       208   6  1.059867E-04  9.000009E+00 -9.927352E-10 -4.483395E-06 -3.866901E-08  6.569653E-10
       208   7  1.020307E-04  9.000011E+00 -5.298795E-08  4.744357E-06  8.970104E-09 -6.956492E-09
       208   8  1.020553E-04  9.000011E+00  5.954298E-09  4.046822E-14 -9.641182E-16 -3.697342E-09
       208   9  1.020307E-04  9.000011E+00 -5.298797E-08 -4.744357E-06 -8.970112E-09 -6.956627E-09
       208  10  1.094237E-04  9.000007E+00 -8.071874E-08  4.197716E-06 -2.430256E-15 -1.775468E-14
       208  11  1.094548E-04  9.000007E+00 -6.566839E-09  2.697881E-14 -2.496040E-15 -4.603233E-15
       208  12  1.094237E-04  9.000007E+00 -8.071873E-08 -4.197715E-06  9.373537E-16 -2.475628E-14
       208  13  1.059315E-04  9.000009E+00 -5.421258E-09  4.458677E-06 -2.587463E-15 -1.284895E-15
       208  14  1.059594E-04  9.000009E+00  6.112581E-08  3.217096E-14  1.459358E-15 -1.870971E-15
       208  15  1.059315E-04  9.000009E+00 -5.421276E-09 -4.458677E-06  2.821024E-15 -2.727878E-14
       208  16  1.020188E-04  9.000011E+00 -3.887759E-08  4.719638E-06  5.864832E-16 -4.247418E-15
       208  17  1.020434E-04  9.000011E+00  2.006468E-08  2.412822E-14  9.123384E-15 -8.482019E-15
       208  18  1.020188E-04  9.000011E+00 -3.887762E-08 -4.719638E-06  5.222095E-15 -3.549977E-14
       208  19  1.095222E-04  9.000007E+00 -5.775123E-08  4.222434E-06 -6.836791E-08 -8.270673E-09
       208  20  1.095533E-04  9.000007E+00  1.640067E-08  3.863570E-14  1.035909E-15 -1.152981E-08
       208  21  1.095222E-04  9.000007E+00 -5.775124E-08 -4.222434E-06  6.836792E-08 -8.270561E-09
       208  22  1.059867E-04  9.000009E+00 -9.927077E-10  4.483395E-06 -3.866900E-08 -6.570788E-10
       208  23  1.060146E-04  9.000009E+00  6.555436E-08  4.034096E-14  2.609700E-15 -3.916238E-09
       208  24  1.059867E-04  9.000009E+00 -9.927406E-10 -4.483395E-06  3.866901E-08 -6.570080E-10
       208  25  1.020307E-04  9.000011E+00 -5.298795E-08  4.744357E-06 -8.970104E-09  6.956498E-09
       208  26  1.020553E-04  9.000011E+00  5.954270E-09  1.949601E-14  7.390406E-15  3.697327E-09
       208  27  1.020307E-04  9.000011E+00 -5.298804E-08 -4.744357E-06  8.970112E-09  6.956550E-09
       209   1  1.101229E-04  9.000007E+00 -4.693650E-08 -6.901656E-06  3.272318E-08  1.110869E-08
       209   2  1.121337E-04  9.000007E+00  5.309528E-08 -1.104369E-05  1.262185E-08  2.701673E-08
       209   3  1.140908E-04  9.000008E+00  4.708504E-08 -1.573950E-05 -7.479495E-09  4.089185E-08
       209   4  1.063546E-04  9.000009E+00 -7.414186E-09 -7.316095E-06  2.497323E-08  1.775748E-10
       209   5  1.076323E-04  9.000010E+00  5.034468E-08 -1.168893E-05  5.859814E-09  4.684820E-09
       209   6  1.088584E-04  9.000010E+00  6.805102E-09 -1.661554E-05 -1.325361E-08  7.159151E-09
       209   7  1.022301E-04  9.000011E+00 -4.579054E-08 -7.686119E-06  1.426272E-08 -1.075356E-08
       209   8  1.027807E-04  9.000012E+00 -1.648872E-08 -1.228975E-05 -3.862772E-09 -1.764707E-08
       209   9  1.032816E-04  9.000012E+00 -8.374170E-08 -1.744717E-05 -2.198827E-08 -2.657354E-08
       209  10  1.101026E-04  9.000007E+00 -3.742211E-08 -6.825909E-06  7.407843E-15 -3.747297E-14
       209  11  1.121072E-04  9.000007E+00  5.644503E-08 -1.096644E-05  1.002872E-14 -1.554387E-14
       209  12  1.140582E-04  9.000008E+00  4.427015E-08 -1.566075E-05  3.337835E-15  3.151786E-14
       209  13  1.063370E-04  9.000009E+00  3.227676E-09 -7.242403E-06  3.750070E-15 -3.810673E-14
       209  14  1.076085E-04  9.000010E+00  5.482190E-08 -1.161373E-05  2.922248E-15 -1.260799E-14
       209  15  1.088284E-04  9.000010E+00  5.117698E-09 -1.653884E-05 -5.076933E-16  3.795436E-14
       209  16  1.022151E-04  9.000011E+00 -3.402125E-08 -7.614482E-06  8.867037E-16 -4.045841E-14
       209  17  1.027595E-04  9.000012E+00 -1.088403E-08 -1.221661E-05 -2.466877E-15 -6.391377E-15
       209  18  1.032542E-04  9.000012E+00 -8.430165E-08 -1.737252E-05 -3.744754E-15  4.604792E-14
       209  19  1.101229E-04  9.000007E+00 -4.693648E-08 -6.901656E-06 -3.272316E-08 -1.110877E-08
       209  20  1.121337E-04  9.000007E+00  5.309532E-08 -1.104369E-05 -1.262184E-08 -2.701679E-08
       209  21  1.140908E-04  9.000008E+00  4.708507E-08 -1.573950E-05  7.479486E-09 -4.089180E-08
       209  22  1.063546E-04  9.000009E+00 -7.414179E-09 -7.316095E-06 -2.497322E-08 -1.776502E-10
       209  23  1.076323E-04  9.000010E+00  5.034471E-08 -1.168893E-05 -5.859816E-09 -4.684870E-09
       209  24  1.088584E-04  9.000010E+00  6.805145E-09 -1.661554E-05  1.325361E-08 -7.159093E-09
       209  25  1.022301E-04  9.000011E+00 -4.579058E-08 -7.686119E-06 -1.426272E-08  1.075349E-08
       209  26  1.027807E-04  9.000012E+00 -1.648870E-08 -1.228975E-05  3.862758E-09  1.764706E-08
       209  27  1.032816E-04  9.000012E+00 -8.374166E-08 -1.744717E-05  2.198827E-08  2.657364E-08
       210   1  1.158270E-04  9.000008E+00  6.341880E-08 -1.870169E-05  9.985630E-08  3.670092E-08
       210   2  1.195180E-04  9.000008E+00 -5.575213E-08 -2.290686E-05 -1.086129E-08 -2.208020E-08
       210   3  1.230271E-04  9.000008E+00 -4.054115E-07 -2.832727E-05 -1.215789E-07 -1.301508E-07
       210   4  1.098277E-04  9.000010E+00 -9.911695E-09 -1.970179E-05  3.338636E-08  1.605786E-08
       210   5  1.120750E-04  9.000011E+00  5.044109E-08 -2.400954E-05 -1.106192E-08  1.365994E-08
       210   6  1.141898E-04  9.000011E+00 -4.685835E-09 -2.953253E-05 -5.551022E-08 -3.802740E-08
       210   7  1.037662E-04  9.000013E+00 -4.803690E-08 -2.057620E-05  1.877592E-09 -4.585205E-09
       210   8  1.045000E-04  9.000013E+00  2.868746E-08 -2.498653E-05  2.369862E-08  4.940007E-08
       210   9  1.051505E-04  9.000014E+00  1.049409E-07 -3.061209E-05  4.551964E-08  5.409594E-08
       210  10  1.156711E-04  9.000008E+00  4.200785E-09 -1.854026E-05  6.155270E-15  3.789618E-14
       210  11  1.193469E-04  9.000008E+00 -1.302017E-07 -2.267725E-05  1.494150E-14 -3.010159E-15
       210  12  1.228407E-04  9.000008E+00 -4.950925E-07 -2.802947E-05  3.683436E-15 -3.400400E-14
       210  13  1.097911E-04  9.000010E+00 -1.799054E-08 -1.954544E-05  2.174438E-15  3.685520E-14
       210  14  1.120232E-04  9.000011E+00  2.713070E-08 -2.378500E-05  8.983420E-15 -6.539022E-15
       210  15  1.141227E-04  9.000011E+00 -4.322772E-08 -2.923980E-05  2.101102E-15 -1.743037E-14
       210  16  1.038489E-04  9.000013E+00 -4.976575E-09 -2.042493E-05 -1.639658E-15  3.755772E-14
       210  17  1.045675E-04  9.000013E+00  5.651619E-08 -2.476707E-05  5.600717E-15 -1.401542E-14
       210  18  1.052027E-04  9.000014E+00  1.175381E-07 -3.032444E-05 -5.053098E-15 -2.097558E-14
       210  19  1.158270E-04  9.000008E+00  6.341887E-08 -1.870169E-05 -9.985629E-08 -3.670085E-08
       210  20  1.195180E-04  9.000008E+00 -5.575209E-08 -2.290686E-05  1.086131E-08  2.208019E-08
       210  21  1.230271E-04  9.000008E+00 -4.054114E-07 -2.832727E-05  1.215789E-07  1.301507E-07
       210  22  1.098277E-04  9.000010E+00 -9.911652E-09 -1.970179E-05 -3.338636E-08 -1.605779E-08
       210  23  1.120750E-04  9.000011E+00  5.044109E-08 -2.400954E-05  1.106193E-08 -1.365997E-08
       210  24  1.141898E-04  9.000011E+00 -4.685806E-09 -2.953253E-05  5.551022E-08  3.802738E-08
       210  25  1.037662E-04  9.000013E+00 -4.803687E-08 -2.057620E-05 -1.877593E-09  4.585287E-09
       210  26  1.045000E-04  9.000013E+00  2.868742E-08 -2.498653E-05 -2.369861E-08 -4.940013E-08
       210  27  1.051505E-04  9.000014E+00  1.049408E-07 -3.061209E-05 -4.551965E-08 -5.409599E-08
       211   1  1.258668E-04  9.000009E+00 -1.277933E-07 -3.168935E-05 -1.803300E-07 -9.758323E-08
       211   2  1.299114E-04  9.000010E+00  5.287411E-07 -3.510400E-05 -5.521261E-08  1.435366E-07
       211   3  1.339044E-04  9.000010E+00  1.471938E-06 -4.000935E-05  6.990477E-08  3.681034E-07
       211   4  1.153604E-04  9.000011E+00 -5.717040E-08 -3.269500E-05 -4.597955E-08 -4.156202E-08
       211   5  1.168711E-04  9.000011E+00 -9.514890E-08 -3.582673E-05 -3.041101E-09  1.910989E-08
       211   6  1.183468E-04  9.000010E+00  1.921590E-07 -4.044916E-05  3.989737E-08  6.322870E-08
       211   7  1.054459E-04  9.000014E+00  1.123371E-07 -3.376286E-05  8.551927E-09  1.445918E-08
       211   8  1.045824E-04  9.000012E+00 -2.476659E-07 -3.661167E-05 -3.068854E-08 -1.053169E-07
       211   9  1.037005E-04  9.000010E+00 -2.437587E-07 -4.095119E-05 -6.992900E-08 -2.416460E-07
       211  10  1.261691E-04  9.000009E+00 -1.446584E-08 -3.133509E-05  1.229722E-14 -3.010789E-14
       211  11  1.301903E-04  9.000010E+00  6.186572E-07 -3.480516E-05  1.758147E-14 -2.882835E-14
       211  12  1.341599E-04  9.000010E+00  1.538443E-06 -3.976594E-05  1.709855E-14 -9.111537E-14
       211  13  1.155657E-04  9.000011E+00  1.458699E-08 -3.234854E-05  8.736507E-15 -1.750677E-14
       211  14  1.170530E-04  9.000011E+00 -4.680289E-08 -3.553570E-05  1.373842E-14 -3.200087E-14
       211  15  1.185053E-04  9.000010E+00  2.170937E-07 -4.021355E-05  1.817607E-14 -5.481913E-14
       211  16  1.055542E-04  9.000014E+00  1.425244E-07 -3.342420E-05  8.496666E-16 -2.576324E-14
       211  17  1.046673E-04  9.000012E+00 -2.408900E-07 -3.632844E-05  1.118307E-14 -3.474327E-14
       211  18  1.037620E-04  9.000010E+00 -2.603941E-07 -4.072338E-05  1.607658E-14 -1.585754E-14
       211  19  1.258668E-04  9.000009E+00 -1.277933E-07 -3.168935E-05  1.803300E-07  9.758318E-08
       211  20  1.299114E-04  9.000010E+00  5.287410E-07 -3.510400E-05  5.521262E-08 -1.435367E-07
       211  21  1.339044E-04  9.000010E+00  1.471938E-06 -4.000935E-05 -6.990475E-08 -3.681035E-07
       211  22  1.153604E-04  9.000011E+00 -5.717039E-08 -3.269500E-05  4.597956E-08  4.156198E-08
       211  23  1.168711E-04  9.000011E+00 -9.514899E-08 -3.582673E-05  3.041117E-09 -1.910995E-08
       211  24  1.183468E-04  9.000010E+00  1.921590E-07 -4.044916E-05 -3.989733E-08 -6.322879E-08
       211  25  1.054459E-04  9.000014E+00  1.123371E-07 -3.376286E-05 -8.551938E-09 -1.445923E-08
       211  26  1.045824E-04  9.000012E+00 -2.476660E-07 -3.661167E-05  3.068856E-08  1.053168E-07
       211  27  1.037005E-04  9.000010E+00 -2.437587E-07 -4.095119E-05  6.992903E-08  2.416460E-07
       212   1  1.353164E-04  9.000009E+00  7.113072E-07 -4.206005E-05  9.014629E-07  2.453881E-07
       212   2  1.364895E-04  9.000003E+00 -2.195305E-06 -4.130606E-05  8.721519E-07 -4.815918E-07
       212   3  1.371008E-04  8.999994E+00 -4.234509E-06 -4.293219E-05  8.428410E-07 -1.350150E-06
       212   4  1.174519E-04  9.000008E+00 -3.935002E-07 -4.230328E-05  1.880996E-07  8.436201E-08
       212   5  1.169439E-04  9.000004E+00 -2.908758E-07 -4.028987E-05  1.770062E-07  3.216427E-08
       212   6  1.160158E-04  8.999997E+00  1.009507E-06 -4.065659E-05  1.659128E-07 -1.616117E-07
       212   7  1.027408E-04  9.000009E+00 -1.532875E-07 -4.229598E-05 -3.064844E-08 -7.666415E-08
       212   8  9.956265E-05  9.000005E+00  6.503691E-07 -3.902316E-05 -2.352427E-08  5.459203E-07
       212   9  9.610587E-05  8.999999E+00  2.982133E-06 -3.813046E-05 -1.640008E-08  1.026927E-06
       212  10  1.357963E-04  9.000009E+00  8.112979E-07 -4.140930E-05 -7.080464E-15 -9.083101E-14
       212  11  1.366157E-04  9.000002E+00 -2.449069E-06 -4.058855E-05 -1.358573E-14 -2.579270E-14
       212  12  1.368733E-04  8.999992E+00 -4.842027E-06 -4.214793E-05  7.709998E-15  6.246360E-15
       212  13  1.180486E-04  9.000008E+00 -2.434432E-07 -4.177044E-05 -1.109094E-15 -4.969861E-14
       212  14  1.171869E-04  9.000003E+00 -4.945732E-07 -3.969028E-05 -1.388454E-14 -1.562859E-14
       212  15  1.159051E-04  8.999995E+00  4.520552E-07 -3.999024E-05 -6.436255E-15  3.601589E-15
       212  16  1.034544E-04  9.000009E+00  4.683581E-08 -4.188106E-05 -2.891824E-15 -9.520356E-15
       212  17  9.992249E-05  9.000005E+00  4.967379E-07 -3.854149E-05 -1.317733E-14 -2.896317E-15
       212  18  9.611196E-05  8.999997E+00  2.474748E-06 -3.758203E-05 -1.198705E-14  5.734490E-15
       212  19  1.353164E-04  9.000009E+00  7.113071E-07 -4.206005E-05 -9.014629E-07 -2.453883E-07
       212  20  1.364895E-04  9.000003E+00 -2.195305E-06 -4.130606E-05 -8.721519E-07  4.815917E-07
       212  21  1.371008E-04  8.999994E+00 -4.234509E-06 -4.293219E-05 -8.428409E-07  1.350150E-06
       212  22  1.174519E-04  9.000008E+00 -3.935002E-07 -4.230328E-05 -1.880996E-07 -8.436208E-08
       212  23  1.169439E-04  9.000004E+00 -2.908758E-07 -4.028987E-05 -1.770062E-07 -3.216428E-08
       212  24  1.160158E-04  8.999997E+00  1.009507E-06 -4.065659E-05 -1.659128E-07  1.616117E-07
       212  25  1.027408E-04  9.000009E+00 -1.532874E-07 -4.229598E-05  3.064844E-08  7.666414E-08
       212  26  9.956265E-05  9.000005E+00  6.503691E-07 -3.902316E-05  2.352423E-08 -5.459203E-07
       212  27  9.610587E-05  8.999999E+00  2.982133E-06 -3.813046E-05  1.640005E-08 -1.026927E-06
       213   1  1.317610E-04  8.999989E+00 -3.768455E-06 -3.825971E-05 -2.453028E-06 -1.130067E-06
       213   2  1.355125E-04  8.999983E+00  1.152636E-05 -2.461341E-05 -6.261566E-06  1.077462E-06
       213   3  1.355018E-04  8.999962E+00  2.929115E-05 -9.237761E-06 -1.007010E-05  4.046059E-06
       213   4  1.075961E-04  8.999987E+00 -1.280254E-06 -3.451819E-05 -2.777357E-07 -3.030557E-07
       213   5  1.041897E-04  8.999963E+00  9.033700E-07 -1.982383E-05 -2.124500E-06 -1.269502E-08
       213   6  9.625998E-05  8.999923E+00  3.781144E-06 -3.400138E-06 -3.971264E-06  1.038734E-06
       213   7  8.874226E-05  8.999986E+00  7.330641E-07 -3.311545E-05  4.792645E-07  5.239551E-07
       213   8  8.101449E-05  8.999947E+00 -3.575803E-06 -1.737305E-05  5.942739E-07 -1.102852E-06
       213   9  6.800234E-05  8.999891E+00 -8.966345E-06  9.869951E-08  7.092833E-07 -1.968591E-06
       213  10  1.291353E-04  8.999986E+00 -5.290594E-06 -3.856552E-05  2.017410E-14  9.027579E-15
       213  11  1.339211E-04  8.999983E+00  1.103856E-05 -2.373329E-05  1.623474E-15 -1.165576E-14
       213  12  1.349448E-04  8.999964E+00  2.983770E-05 -7.171717E-06 -8.659004E-15 -4.968549E-14
       213  13  1.070458E-04  8.999985E+00 -1.912946E-06 -3.447922E-05  9.169659E-15  1.104072E-14
       213  14  1.046737E-04  8.999964E+00  1.305022E-06 -1.859894E-05  3.519401E-15  1.247196E-15
       213  15  9.777831E-05  8.999926E+00  5.217140E-06 -9.893119E-07  1.049259E-15 -5.228245E-14
       213  16  9.026728E-05  8.999986E+00  9.898190E-07 -3.273171E-05  2.462834E-16  1.520469E-14
       213  17  8.357385E-05  8.999949E+00 -2.284704E-06 -1.580337E-05  2.528522E-15  9.611834E-15
       213  18  7.159605E-05  8.999895E+00 -6.640902E-06  2.854306E-06  8.455827E-15 -3.958408E-14
       213  19  1.317610E-04  8.999989E+00 -3.768455E-06 -3.825971E-05  2.453028E-06  1.130067E-06
       213  20  1.355125E-04  8.999983E+00  1.152636E-05 -2.461341E-05  6.261566E-06 -1.077462E-06
       213  21  1.355018E-04  8.999962E+00  2.929115E-05 -9.237761E-06  1.007010E-05 -4.046059E-06
       213  22  1.075961E-04  8.999987E+00 -1.280254E-06 -3.451819E-05  2.777357E-07  3.030558E-07
       213  23  1.041897E-04  8.999963E+00  9.033701E-07 -1.982383E-05  2.124500E-06  1.269502E-08
       213  24  9.625998E-05  8.999923E+00  3.781144E-06 -3.400138E-06  3.971264E-06 -1.038734E-06
       213  25  8.874226E-05  8.999986E+00  7.330642E-07 -3.311545E-05 -4.792645E-07 -5.239551E-07
       213  26  8.101449E-05  8.999947E+00 -3.575803E-06 -1.737305E-05 -5.942739E-07  1.102852E-06
       213  27  6.800234E-05  8.999891E+00 -8.966345E-06  9.869942E-08 -7.092833E-07  1.968591E-06
       214   1  7.677810E-05  8.999888E+00 -1.187444E-05  3.099889E-05  1.499357E-05  1.604109E-06
       214   2  9.958673E-05  8.999737E+00 -5.235078E-05  4.205351E-05  3.419007E-05 -1.486815E-06
       214   3  1.240916E-04  8.999551E+00 -5.316728E-05  4.140231E-05  5.338657E-05  8.994249E-06
       214   4  7.430624E-05  8.999874E+00 -9.053565E-06  2.600444E-05  3.482960E-06 -9.325935E-07
       214   5  1.103180E-04  8.999773E+00 -4.924836E-06  3.128961E-05  1.181638E-05 -4.890602E-07
       214   6  1.344541E-04  8.999624E+00  7.195757E-06  2.486894E-05  2.014980E-05  1.352646E-05
       214   7  7.887379E-05  8.999865E+00 -3.274347E-07  2.731542E-05 -1.948638E-06 -3.469296E-06
       214   8  1.159307E-04  8.999802E+00  2.003764E-05  2.683113E-05 -4.478300E-06  5.086944E-07
       214   9  1.275399E-04  8.999677E+00  1.672661E-05  1.464100E-05 -7.007962E-06  1.805867E-05
       214  10  1.195109E-04  8.999904E+00  5.783678E-06  3.711027E-05  1.473818E-15 -3.941255E-14
       214  11  1.326180E-04  8.999730E+00 -4.439417E-05  3.492808E-05  5.826776E-15  1.136307E-14
       214  12  1.474213E-04  8.999522E+00 -5.491218E-05  2.104007E-05  8.088998E-15  1.679529E-14
       214  13  9.387458E-05  8.999881E+00 -1.323050E-06  2.888198E-05 -2.662091E-15 -4.879138E-14
       214  14  1.201848E-04  8.999757E+00 -6.895831E-06  2.093034E-05 -6.924516E-15  1.726318E-15
       214  15  1.346194E-04  8.999585E+00 -4.476750E-06  1.272869E-06  1.877328E-15  9.004118E-15
       214  16  7.527772E-05  8.999861E+00 -2.524524E-06  2.695912E-05 -1.968865E-15 -4.382246E-14
       214  17  1.026331E-04  8.999775E+00  8.139042E-06  1.323802E-05 -4.314791E-15 -2.899976E-15
       214  18  1.045408E-04  8.999628E+00 -4.873502E-06 -1.218891E-05 -1.325298E-14 -4.230422E-15
       214  19  7.677810E-05  8.999888E+00 -1.187444E-05  3.099889E-05 -1.499357E-05 -1.604109E-06
       214  20  9.958673E-05  8.999737E+00 -5.235078E-05  4.205351E-05 -3.419007E-05  1.486815E-06
       214  21  1.240916E-04  8.999551E+00 -5.316728E-05  4.140231E-05 -5.338657E-05 -8.994249E-06
       214  22  7.430624E-05  8.999874E+00 -9.053565E-06  2.600444E-05 -3.482960E-06  9.325934E-07
       214  23  1.103180E-04  8.999773E+00 -4.924836E-06  3.128961E-05 -1.181638E-05  4.890602E-07
       214  24  1.344541E-04  8.999624E+00  7.195757E-06  2.486894E-05 -2.014980E-05 -1.352646E-05
       214  25  7.887379E-05  8.999865E+00 -3.274347E-07  2.731542E-05  1.948638E-06  3.469296E-06
       214  26  1.159307E-04  8.999802E+00  2.003764E-05  2.683113E-05  4.478300E-06 -5.086944E-07
       214  27  1.275399E-04  8.999677E+00  1.672661E-05  1.464100E-05  7.007962E-06 -1.805867E-05
       215   1  2.178636E-04  8.999571E+00 -2.531493E-06 -1.293453E-04  7.430809E-05  7.823571E-06
       215   2  5.875946E-05  8.999677E+00 -2.047561E-05 -1.364056E-04  1.502535E-05 -7.354880E-06
       215   3 -6.563753E-05  8.999840E+00  2.006782E-05 -9.264771E-05 -4.425739E-05 -1.000606E-05
       215   4  1.879233E-04  8.999616E+00  3.460200E-05 -8.930281E-05  4.028361E-05  1.333439E-05
       215   5  7.489627E-05  8.999668E+00  4.123651E-06 -1.055104E-04  1.252405E-05 -2.015547E-06
       215   6 -1.595083E-05  8.999764E+00  2.902552E-06 -7.089984E-05 -1.523551E-05 -4.838211E-06
       215   7  1.101177E-04  8.999628E+00  9.287581E-06 -6.159687E-05 -1.167299E-06  1.884521E-05
       215   8  5.802071E-05  8.999640E+00  9.316697E-07 -8.695180E-05  2.596326E-06  3.323787E-06
       215   9  1.557636E-05  8.999685E+00 -7.397295E-06 -6.148856E-05  6.359950E-06  3.296375E-07
       215  10  1.331917E-04  8.999499E+00 -4.942960E-05 -1.653753E-04  1.733227E-15  3.636548E-15
       215  11 -9.395925E-06  8.999644E+00 -5.085718E-05 -1.534910E-04 -4.190988E-15 -3.583218E-15
       215  12 -1.172764E-04  8.999845E+00  6.202792E-06 -9.078840E-05 -1.342756E-14  1.298066E-14
       215  13  1.364045E-04  8.999558E+00  1.912385E-06 -1.198273E-04  3.968278E-15 -3.309630E-15
       215  14  3.989404E-05  8.999649E+00 -1.204942E-05 -1.170903E-04 -5.098591E-16 -5.880659E-15
       215  15 -3.443652E-05  8.999784E+00  3.246023E-06 -6.353502E-05 -6.223130E-15  2.138691E-14
       215  16  9.175206E-05  8.999584E+00 -9.193534E-06 -8.661586E-05 -5.061684E-15 -1.624877E-14
       215  17  5.617163E-05  8.999636E+00 -1.032905E-06 -9.302613E-05 -4.673881E-15 -1.194150E-14
       215  18  3.024383E-05  8.999719E+00  7.154672E-06 -4.861822E-05 -1.583376E-14  2.333669E-14
       215  19  2.178636E-04  8.999571E+00 -2.531493E-06 -1.293453E-04 -7.430809E-05 -7.823571E-06
       215  20  5.875946E-05  8.999677E+00 -2.047561E-05 -1.364056E-04 -1.502535E-05  7.354880E-06
       215  21 -6.563753E-05  8.999840E+00  2.006782E-05 -9.264771E-05  4.425739E-05  1.000606E-05
       215  22  1.879233E-04  8.999616E+00  3.460200E-05 -8.930281E-05 -4.028361E-05 -1.333439E-05
       215  23  7.489627E-05  8.999668E+00  4.123651E-06 -1.055104E-04 -1.252405E-05  2.015547E-06
       215  24 -1.595083E-05  8.999764E+00  2.902552E-06 -7.089984E-05  1.523551E-05  4.838211E-06
       215  25  1.101177E-04  8.999628E+00  9.287581E-06 -6.159687E-05  1.167299E-06 -1.884521E-05
       215  26  5.802071E-05  8.999640E+00  9.316698E-07 -8.695180E-05 -2.596326E-06 -3.323787E-06
       215  27  1.557636E-05  8.999685E+00 -7.397295E-06 -6.148856E-05 -6.359950E-06 -3.296374E-07
       301   1  1.944521E-05  8.999656E+00 -6.258027E-06  5.199356E-05 -9.418299E-06 -5.767447E-07
       301   2  5.532275E-05  8.999658E+00  6.940781E-06  6.064630E-05  1.730788E-06  3.062583E-06
       301   3  8.076833E-05  8.999649E+00 -2.651276E-06  6.127019E-05  1.287987E-05  1.219189E-06
       301   4  1.188288E-05  8.999629E+00 -9.437731E-07  3.230877E-05 -3.658940E-06 -1.366662E-06
       301   5  4.025569E-05  8.999651E+00  2.744619E-06  4.317968E-05  1.347043E-06  2.251465E-06
       301   6  6.367927E-05  8.999666E+00 -3.564833E-06  4.602173E-05  6.353026E-06  3.868690E-07
       301   7  6.865037E-06  8.999603E+00  1.621769E-06  1.731454E-05  1.275676E-06 -2.156580E-06
       301   8  2.938262E-05  8.999645E+00 -3.514502E-07  3.040361E-05  1.385549E-07  1.440346E-06
       301   9  5.243369E-05  8.999687E+00  4.705056E-07  3.546383E-05 -9.985664E-07 -4.454506E-07
       301  10  2.483930E-05  8.999652E+00 -5.749812E-06  5.069611E-05 -7.560671E-15 -1.599238E-14
       301  11  6.254866E-05  8.999659E+00  9.280818E-06  5.679754E-05 -4.743137E-15 -1.007016E-15
       301  12  8.982606E-05  8.999654E+00  1.520583E-06  5.487013E-05  1.025412E-14  1.109078E-14
       301  13  1.281218E-05  8.999624E+00 -2.349038E-06  3.162193E-05 -1.268603E-14 -1.105174E-16
       301  14  4.301682E-05  8.999650E+00  3.171176E-06  3.994153E-05 -5.413646E-15 -9.273516E-15
       301  15  6.827222E-05  8.999669E+00 -1.306454E-06  4.023228E-05  8.323634E-15 -7.288948E-15
       301  16  3.329550E-06  8.999595E+00 -1.696976E-06  1.723830E-05 -2.993439E-15  1.719665E-14
       301  17  2.767895E-05  8.999642E+00 -1.838374E-06  2.777607E-05 -3.352477E-15 -6.784263E-15
       301  18  5.256185E-05  8.999688E+00  8.154037E-07  3.028498E-05  4.607263E-15 -3.903154E-15
       301  19  1.944521E-05  8.999656E+00 -6.258027E-06  5.199356E-05  9.418299E-06  5.767447E-07
       301  20  5.532275E-05  8.999658E+00  6.940781E-06  6.064630E-05 -1.730788E-06 -3.062583E-06
       301  21  8.076833E-05  8.999649E+00 -2.651276E-06  6.127019E-05 -1.287987E-05 -1.219189E-06
       301  22  1.188288E-05  8.999629E+00 -9.437731E-07  3.230877E-05  3.658939E-06  1.366662E-06
       301  23  4.025569E-05  8.999651E+00  2.744619E-06  4.317968E-05 -1.347043E-06 -2.251465E-06
       301  24  6.367927E-05  8.999666E+00 -3.564833E-06  4.602173E-05 -6.353026E-06 -3.868690E-07
       301  25  6.865037E-06  8.999603E+00  1.621769E-06  1.731454E-05 -1.275676E-06  2.156580E-06
       301  26  2.938262E-05  8.999645E+00 -3.514502E-07  3.040361E-05 -1.385549E-07 -1.440346E-06
       301  27  5.243369E-05  8.999687E+00  4.705056E-07  3.546383E-05  9.985664E-07  4.454506E-07
       302   1  1.079054E-04  8.999678E+00  2.002473E-06  1.334657E-05  1.179053E-05 -4.208281E-08
       302   2  9.081309E-05  8.999764E+00  2.296072E-06 -8.375337E-06  6.874243E-06  3.426762E-07
       302   3  7.716026E-05  8.999860E+00  2.933707E-06 -2.303729E-05  1.957953E-06 -3.002522E-07
       302   4  8.319703E-05  8.999696E+00 -1.682607E-07  1.491743E-05  5.321458E-06 -7.201310E-07
       302   5  7.143931E-05  8.999769E+00 -3.137172E-07 -3.623870E-06  3.066622E-06  2.159815E-07
       302   6  6.414881E-05  8.999854E+00  2.282799E-06 -1.510523E-05  8.117856E-07  1.244065E-07
       302   7  6.216035E-05  8.999717E+00  2.027675E-06  1.382665E-05 -6.372590E-07 -1.398179E-06
       302   8  5.471657E-05  8.999776E+00 -9.385087E-07 -1.534053E-06 -2.306413E-07  8.928671E-08
       302   9  5.276768E-05  8.999849E+00  1.235219E-06 -9.834811E-06  1.759763E-07  5.490652E-07
       302  10  1.008161E-04  8.999677E+00 -5.290446E-07  9.361253E-06  1.701768E-14  8.504530E-15
       302  11  8.319572E-05  8.999761E+00 -7.634788E-07 -9.979179E-06  9.478793E-15  8.248556E-15
       302  12  6.901485E-05  8.999856E+00 -6.538775E-07 -2.225966E-05  4.410942E-15  1.350399E-14
       302  13  8.027526E-05  8.999697E+00 -9.136738E-07  1.075611E-05  1.589353E-14 -7.173697E-15
       302  14  6.798952E-05  8.999768E+00 -1.587163E-06 -5.403723E-06  1.645191E-14 -1.707063E-16
       302  15  6.017098E-05  8.999852E+00  4.813200E-07 -1.450361E-05  9.790374E-15  2.076568E-14
       302  16  6.340616E-05  8.999719E+00  3.068366E-06  9.489315E-06  6.672718E-15  2.192506E-15
       302  17  5.543435E-05  8.999777E+00 -4.258501E-07 -3.489917E-06  1.033246E-14  1.173567E-14
       302  18  5.295743E-05  8.999849E+00  1.219844E-06 -9.409202E-06  1.483365E-14  2.721961E-14
       302  19  1.079054E-04  8.999678E+00  2.002473E-06  1.334657E-05 -1.179053E-05  4.208281E-08
       302  20  9.081309E-05  8.999764E+00  2.296072E-06 -8.375337E-06 -6.874243E-06 -3.426762E-07
       302  21  7.716026E-05  8.999860E+00  2.933707E-06 -2.303729E-05 -1.957953E-06  3.002522E-07
       302  22  8.319703E-05  8.999696E+00 -1.682607E-07  1.491743E-05 -5.321458E-06  7.201310E-07
       302  23  7.143931E-05  8.999769E+00 -3.137171E-07 -3.623870E-06 -3.066622E-06 -2.159815E-07
       302  24  6.414881E-05  8.999854E+00  2.282800E-06 -1.510523E-05 -8.117855E-07 -1.244064E-07
       302  25  6.216035E-05  8.999717E+00  2.027675E-06  1.382665E-05  6.372590E-07  1.398179E-06
       302  26  5.471657E-05  8.999776E+00 -9.385087E-07 -1.534053E-06  2.306414E-07 -8.928669E-08
       302  27  5.276768E-05  8.999849E+00  1.235219E-06 -9.834811E-06 -1.759763E-07 -5.490651E-07
       303   1  6.789978E-05  8.999904E+00 -6.879729E-09 -2.631460E-06 -1.532683E-06 -6.020279E-07
       303   2  7.607464E-05  8.999952E+00  1.089231E-06  1.408063E-05 -9.659034E-07 -2.874626E-07
       303   3  7.696755E-05  8.999979E+00 -1.216441E-06  2.953477E-05 -3.991239E-07  9.730758E-08
       303   4  5.470921E-05  8.999895E+00 -3.492024E-07 -2.286115E-06 -6.551421E-07 -1.035084E-07
       303   5  6.195105E-05  8.999945E+00  1.089257E-06  1.246876E-05 -4.976322E-07 -8.647466E-08
       303   6  6.184073E-05  8.999974E+00 -1.037878E-06  2.596569E-05 -3.401223E-07  7.640011E-10
       303   7  4.321900E-05  8.999886E+00 -1.524507E-06 -1.522328E-06  1.327045E-07  3.950110E-07
       303   8  4.970720E-05  8.999938E+00  6.748730E-07  1.127534E-05 -1.190552E-07  1.145133E-07
       303   9  4.877304E-05  8.999969E+00 -8.551521E-07  2.281505E-05 -3.708150E-07 -9.577956E-08
       303  10  7.019190E-05  8.999904E+00  7.688576E-07 -1.866015E-06  2.707694E-15  1.282159E-14
       303  11  7.823385E-05  8.999952E+00  1.732057E-06  1.451280E-05  6.470053E-15  1.275401E-14
       303  12  7.899384E-05  8.999979E+00 -7.065255E-07  2.963366E-05  1.535028E-14  3.973009E-14
       303  13  5.641809E-05  8.999895E+00  1.765757E-07 -1.564973E-06  7.012171E-15  1.994812E-14
       303  14  6.352701E-05  8.999945E+00  1.482124E-06  1.285663E-05  9.834246E-15  6.421825E-15
       303  15  6.328379E-05  8.999973E+00 -7.779223E-07  2.602027E-05  1.549655E-14  3.379629E-14
       303  16  4.434464E-05  8.999886E+00 -1.248688E-06 -8.454906E-07  1.330856E-14  2.076255E-14
       303  17  5.069993E-05  8.999938E+00  8.177808E-07  1.161889E-05  1.004387E-14  4.533279E-15
       303  18  4.963286E-05  8.999968E+00 -8.451554E-07  2.282533E-05  1.686454E-14  2.689961E-14
       303  19  6.789978E-05  8.999904E+00 -6.879648E-09 -2.631460E-06  1.532683E-06  6.020279E-07
       303  20  7.607464E-05  8.999952E+00  1.089231E-06  1.408063E-05  9.659034E-07  2.874626E-07
       303  21  7.696755E-05  8.999979E+00 -1.216441E-06  2.953477E-05  3.991240E-07 -9.730749E-08
       303  22  5.470921E-05  8.999895E+00 -3.492023E-07 -2.286115E-06  6.551421E-07  1.035085E-07
       303  23  6.195105E-05  8.999945E+00  1.089257E-06  1.246876E-05  4.976322E-07  8.647468E-08
       303  24  6.184073E-05  8.999974E+00 -1.037878E-06  2.596569E-05  3.401224E-07 -7.639439E-10
       303  25  4.321900E-05  8.999886E+00 -1.524507E-06 -1.522328E-06 -1.327044E-07 -3.950110E-07
       303  26  4.970720E-05  8.999938E+00  6.748730E-07  1.127534E-05  1.190553E-07 -1.145133E-07
       303  27  4.877304E-05  8.999969E+00 -8.551521E-07  2.281505E-05  3.708150E-07  9.577963E-08
       304   1  8.215741E-05  8.999990E+00 -6.859488E-07  3.489500E-05  2.711783E-08  1.910566E-07
       304   2  8.950710E-05  9.000003E+00 -8.767118E-08  3.822685E-05  1.185281E-08  5.826155E-08
       304   3  9.465511E-05  9.000010E+00  1.854947E-07  4.135180E-05 -3.412207E-09 -1.130704E-07
       304   4  6.758253E-05  8.999986E+00 -2.792130E-07  3.132716E-05  1.787743E-07  3.966927E-08
       304   5  7.499808E-05  9.000001E+00 -1.562775E-07  3.500457E-05  6.835154E-08  1.593572E-08
       304   6  8.025047E-05  9.000009E+00 -2.685342E-07  3.847509E-05 -4.207126E-08 -4.633471E-08
       304   7  5.532875E-05  8.999983E+00  3.813991E-07  2.808898E-05  2.961398E-07 -1.117180E-07
       304   8  6.287873E-05  9.000000E+00  1.890177E-07  3.211196E-05  9.055916E-08 -2.639010E-08
       304   9  6.830410E-05  9.000010E+00 -1.486363E-07  3.592804E-05 -1.150214E-07  2.040094E-08
       304  10  8.245311E-05  8.999989E+00 -9.065879E-07  3.451806E-05  1.669476E-14  3.701415E-14
       304  11  9.000265E-05  9.000003E+00 -1.084611E-07  3.779299E-05  1.486151E-14  7.296018E-15
       304  12  9.535050E-05  9.000010E+00  3.645539E-07  4.086103E-05  9.777125E-15  1.268959E-14
       304  13  6.777862E-05  8.999985E+00 -5.425399E-07  3.101683E-05  1.753069E-14  2.828181E-14
       304  14  7.539402E-05  9.000001E+00 -2.197552E-07  3.463733E-05  1.029330E-14  4.351273E-15
       304  15  8.084626E-05  9.000009E+00 -1.321627E-07  3.805093E-05  6.795998E-15  1.983801E-14
       304  16  5.542523E-05  8.999982E+00  7.538445E-08  2.784527E-05  1.636474E-14  2.825877E-14
       304  17  6.317506E-05  8.999999E+00  8.285228E-08  3.181133E-05  8.779333E-15  7.118005E-15
       304  18  6.880028E-05  9.000010E+00 -5.495263E-08  3.557049E-05  8.011767E-15  2.136579E-14
       304  19  8.215741E-05  8.999990E+00 -6.859488E-07  3.489500E-05 -2.711780E-08 -1.910565E-07
       304  20  8.950710E-05  9.000003E+00 -8.767116E-08  3.822685E-05 -1.185278E-08 -5.826154E-08
       304  21  9.465511E-05  9.000010E+00  1.854947E-07  4.135180E-05  3.412227E-09  1.130704E-07
       304  22  6.758253E-05  8.999986E+00 -2.792130E-07  3.132716E-05 -1.787743E-07 -3.966921E-08
       304  23  7.499808E-05  9.000001E+00 -1.562775E-07  3.500457E-05 -6.835152E-08 -1.593571E-08
       304  24  8.025047E-05  9.000009E+00 -2.685341E-07  3.847509E-05  4.207128E-08  4.633474E-08
       304  25  5.532875E-05  8.999983E+00  3.813991E-07  2.808898E-05 -2.961397E-07  1.117181E-07
       304  26  6.287873E-05  9.000000E+00  1.890177E-07  3.211196E-05 -9.055914E-08  2.639011E-08
       304  27  6.830410E-05  9.000010E+00 -1.486363E-07  3.592804E-05  1.150214E-07 -2.040089E-08
       305   1  9.612837E-05  9.000012E+00  1.221113E-07  4.002736E-05  1.108070E-07 -1.190392E-07
       305   2  9.819996E-05  9.000014E+00  2.070073E-07  3.626985E-05  5.482264E-08 -1.477343E-08
       305   3  9.965361E-05  9.000015E+00  1.057435E-07  3.344205E-05 -1.161696E-09 -2.116616E-08
       305   4  8.374172E-05  9.000012E+00  1.500384E-07  3.787792E-05  7.180883E-08 -3.048996E-08
       305   5  8.708365E-05  9.000015E+00 -1.760533E-08  3.459924E-05  4.046318E-08  3.967653E-08
       305   6  8.991830E-05  9.000017E+00 -1.132056E-07  3.225027E-05  9.117526E-09 -8.154907E-10
       305   7  7.252689E-05  9.000013E+00  2.697039E-07  3.575790E-05  4.730401E-09  5.805928E-08
       305   8  7.719532E-05  9.000017E+00 -1.943827E-08  3.295805E-05 -1.976570E-09  9.412646E-08
       305   9  8.146714E-05  9.000019E+00  2.166620E-08  3.108791E-05 -8.683533E-09  1.953518E-08
       305  10  9.612459E-05  9.000011E+00  3.888165E-08  3.967227E-05  7.622055E-15  9.168960E-15
       305  11  9.822100E-05  9.000014E+00  1.485966E-07  3.597474E-05  7.906577E-15 -8.753047E-15
       305  12  9.969947E-05  9.000015E+00  7.215166E-08  3.320691E-05  8.672375E-15  7.291319E-15
       305  13  8.384290E-05  9.000012E+00  1.117907E-07  3.753111E-05  5.682170E-15  1.425441E-14
       305  14  8.720965E-05  9.000015E+00 -3.103409E-08  3.431240E-05  6.626889E-15 -1.345642E-14
       305  15  9.006912E-05  9.000017E+00 -1.018155E-07  3.202341E-05  6.671769E-15  7.061160E-15
       305  16  7.273302E-05  9.000013E+00  2.764382E-07  3.541935E-05  5.904168E-15  1.690628E-14
       305  17  7.742628E-05  9.000017E+00  1.211494E-08  3.267948E-05  3.637425E-15 -7.607591E-15
       305  18  8.172291E-05  9.000019E+00  7.803835E-08  3.086932E-05  2.147081E-15  1.184431E-14
       305  19  9.612837E-05  9.000012E+00  1.221113E-07  4.002736E-05 -1.108070E-07  1.190392E-07
       305  20  9.819996E-05  9.000014E+00  2.070073E-07  3.626985E-05 -5.482263E-08  1.477343E-08
       305  21  9.965361E-05  9.000015E+00  1.057435E-07  3.344205E-05  1.161714E-09  2.116619E-08
       305  22  8.374172E-05  9.000012E+00  1.500384E-07  3.787792E-05 -7.180881E-08  3.049000E-08
       305  23  8.708365E-05  9.000015E+00 -1.760533E-08  3.459924E-05 -4.046316E-08 -3.967654E-08
       305  24  8.991830E-05  9.000017E+00 -1.132056E-07  3.225027E-05 -9.117511E-09  8.155140E-10
       305  25  7.252689E-05  9.000013E+00  2.697039E-07  3.575790E-05 -4.730387E-09 -5.805923E-08
       305  26  7.719532E-05  9.000017E+00 -1.943826E-08  3.295805E-05  1.976566E-09 -9.412647E-08
       305  27  8.146714E-05  9.000019E+00  2.166624E-08  3.108791E-05  8.683530E-09 -1.953515E-08
       306   1  9.983130E-05  9.000015E+00 -4.955305E-08  3.037383E-05 -6.944633E-08 -2.995859E-08
       306   2  1.000845E-04  9.000015E+00 -1.726642E-08  2.510721E-05 -3.101772E-08 -2.662857E-09
       306   3  1.002617E-04  9.000014E+00  5.313571E-08  2.067097E-05  7.410902E-09 -6.833782E-09
       306   4  9.148442E-05  9.000017E+00  1.896316E-08  2.951550E-05 -3.653693E-08 -1.994986E-08
       306   5  9.279873E-05  9.000017E+00 -6.214424E-08  2.446354E-05 -7.305768E-09  5.905156E-09
       306   6  9.406840E-05  9.000017E+00 -3.171378E-08  2.024196E-05  2.192540E-08  2.935146E-10
       306   7  8.352835E-05  9.000019E+00  1.041135E-07  2.861250E-05 -1.673967E-08 -9.941133E-09
       306   8  8.592997E-05  9.000019E+00 -2.919795E-08  2.377521E-05  3.294051E-09  1.447316E-08
       306   9  8.831841E-05  9.000019E+00  2.245074E-08  1.976829E-05  2.332777E-08  7.420806E-09
       306  10  9.986011E-05  9.000015E+00 -8.168612E-08  3.020437E-05  4.741570E-15  9.233343E-15
       306  11  1.001412E-04  9.000015E+00 -2.151797E-08  2.494266E-05 -6.932348E-16  7.375041E-15
       306  12  1.003462E-04  9.000014E+00  7.676569E-08  2.051132E-05  3.385828E-15  3.047320E-14
       306  13  9.152181E-05  9.000017E+00 -9.493433E-09  2.935533E-05  1.055547E-15  1.350923E-14
       306  14  9.286400E-05  9.000017E+00 -6.271932E-08  2.430828E-05 -1.540538E-15  2.185640E-15
       306  15  9.416156E-05  9.000017E+00 -4.407382E-09  2.009160E-05 -9.581582E-16  2.171673E-14
       306  16  8.357432E-05  9.000019E+00  7.933340E-08  2.846163E-05 -3.502513E-15  2.002487E-14
       306  17  8.600382E-05  9.000019E+00 -2.609658E-08  2.362924E-05 -5.495950E-15  9.334953E-15
       306  18  8.842015E-05  9.000019E+00  5.343358E-08  1.962723E-05 -4.621698E-15  1.504660E-14
       306  19  9.983130E-05  9.000015E+00 -4.955308E-08  3.037383E-05  6.944633E-08  2.995862E-08
       306  20  1.000845E-04  9.000015E+00 -1.726643E-08  2.510721E-05  3.101772E-08  2.662872E-09
       306  21  1.002617E-04  9.000014E+00  5.313574E-08  2.067097E-05 -7.410897E-09  6.833838E-09
       306  22  9.148442E-05  9.000017E+00  1.896316E-08  2.951550E-05  3.653694E-08  1.994990E-08
       306  23  9.279873E-05  9.000017E+00 -6.214422E-08  2.446354E-05  7.305768E-09 -5.905149E-09
       306  24  9.406840E-05  9.000017E+00 -3.171377E-08  2.024196E-05 -2.192541E-08 -2.934585E-10
       306  25  8.352835E-05  9.000019E+00  1.041136E-07  2.861250E-05  1.673967E-08  9.941177E-09
       306  26  8.592997E-05  9.000019E+00 -2.919791E-08  2.377521E-05 -3.294058E-09 -1.447316E-08
       306  27  8.831841E-05  9.000019E+00  2.245078E-08  1.976829E-05 -2.332778E-08 -7.420758E-09
       307   1  1.001300E-04  9.000014E+00  3.149755E-08  1.752851E-05  1.913323E-08 -7.930870E-09
       307   2  9.993703E-05  9.000013E+00  2.372751E-08  1.240482E-05  7.173034E-09  3.354051E-09
       307   3  9.980270E-05  9.000013E+00  3.415073E-08  7.738857E-06 -4.787149E-09  3.399250E-11
       307   4  9.463226E-05  9.000016E+00  2.250665E-08  1.722048E-05 -3.816699E-09 -1.710172E-09
       307   5  9.501092E-05  9.000016E+00 -1.646875E-08  1.219941E-05  4.422254E-09  7.899963E-09
       307   6  9.546282E-05  9.000015E+00 -3.172480E-09  7.636050E-06  1.266122E-08  2.905103E-09
       307   7  8.924531E-05  9.000019E+00  2.885564E-08  1.687228E-05 -3.062859E-08  4.510507E-09
       307   8  9.020333E-05  9.000018E+00 -2.330264E-08  1.195381E-05 -2.190473E-09  1.244587E-08
       307   9  9.124919E-05  9.000018E+00  1.088914E-08  7.493063E-06  2.624762E-08  5.776211E-09
       307  10  1.000824E-04  9.000014E+00  4.253379E-09  1.742971E-05  3.331692E-15  2.740395E-14
       307  11  9.989625E-05  9.000013E+00  3.288634E-09  1.232665E-05 -5.360937E-15 -7.156399E-15
       307  12  9.976872E-05  9.000013E+00  2.051712E-08  7.681315E-06 -5.354082E-15 -9.964685E-15
       307  13  9.462077E-05  9.000016E+00  1.073218E-08  1.712396E-05  1.492614E-15  2.007386E-14
       307  14  9.500623E-05  9.000016E+00 -2.143795E-08  1.212351E-05  1.128974E-15 -1.196158E-14
       307  15  9.546494E-05  9.000015E+00 -1.336411E-09  7.580776E-06 -3.205370E-15 -1.592392E-14
       307  16  8.926992E-05  9.000019E+00  3.255087E-08  1.677802E-05  2.961628E-15  1.335461E-14
       307  17  9.023474E-05  9.000018E+00 -1.280216E-08  1.188018E-05  1.776604E-15 -9.981411E-15
       307  18  9.128740E-05  9.000018E+00  2.819487E-08  7.440057E-06 -3.257599E-15 -2.908179E-14
       307  19  1.001300E-04  9.000014E+00  3.149751E-08  1.752851E-05 -1.913323E-08  7.930929E-09
       307  20  9.993703E-05  9.000013E+00  2.372753E-08  1.240482E-05 -7.173050E-09 -3.354065E-09
       307  21  9.980270E-05  9.000013E+00  3.415072E-08  7.738857E-06  4.787140E-09 -3.400362E-11
       307  22  9.463226E-05  9.000016E+00  2.250666E-08  1.722048E-05  3.816704E-09  1.710234E-09
       307  23  9.501092E-05  9.000016E+00 -1.646873E-08  1.219941E-05 -4.422264E-09 -7.899983E-09
       307  24  9.546282E-05  9.000015E+00 -3.172502E-09  7.636050E-06 -1.266122E-08 -2.905135E-09
       307  25  8.924531E-05  9.000019E+00  2.885568E-08  1.687228E-05  3.062859E-08 -4.510483E-09
       307  26  9.020333E-05  9.000018E+00 -2.330261E-08  1.195381E-05  2.190490E-09 -1.244589E-08
       307  27  9.124919E-05  9.000018E+00  1.088913E-08  7.493063E-06 -2.624763E-08 -5.776268E-09
       308   1  9.970937E-05  9.000013E+00  1.415916E-08  4.764703E-06 -3.080247E-09 -2.181439E-09
       308   2  9.965698E-05  9.000013E+00 -6.009792E-09  5.143791E-14  7.223540E-15  5.956254E-11
       308   3  9.970937E-05  9.000013E+00  1.415915E-08 -4.764703E-06  3.080243E-09 -2.181551E-09
       308   4  9.560462E-05  9.000015E+00  7.712127E-09  4.705567E-06 -1.479228E-08  2.023068E-10
       308   5  9.554999E-05  9.000015E+00 -1.768596E-08  3.975557E-14 -9.664060E-16  2.443341E-09
       308   6  9.560462E-05  9.000015E+00  7.712124E-09 -4.705567E-06  1.479228E-08  2.022411E-10
       308   7  9.151487E-05  9.000017E+00  9.250877E-09  4.646431E-06 -2.650432E-08  2.586073E-09
       308   8  9.145799E-05  9.000017E+00 -2.137638E-08  6.362928E-15 -1.021349E-15  4.827126E-09
       308   9  9.151487E-05  9.000017E+00  9.250823E-09 -4.646431E-06  2.650431E-08  2.586036E-09
       308  10  9.968530E-05  9.000013E+00  5.901979E-09  4.754238E-06  6.979203E-16  4.354991E-17
       308  11  9.963291E-05  9.000013E+00 -1.426694E-08  1.771439E-14  9.858389E-15  2.466367E-16
       308  12  9.968530E-05  9.000013E+00  5.901990E-09 -4.754238E-06  6.527993E-15 -2.990038E-14
       308  13  9.559887E-05  9.000015E+00  7.303582E-09  4.695102E-06  1.882143E-15 -9.933521E-15
       308  14  9.554423E-05  9.000015E+00 -1.809452E-08  1.954691E-14  9.823077E-15 -5.371685E-16
       308  15  9.559887E-05  9.000015E+00  7.303581E-09 -4.695102E-06  7.481518E-15 -1.445716E-14
       308  16  9.152742E-05  9.000017E+00  1.669093E-08  4.635966E-06  2.337971E-15 -2.215034E-14
       308  17  9.147055E-05  9.000017E+00 -1.393632E-08  7.431900E-15  1.209656E-14  2.722229E-16
       308  18  9.152742E-05  9.000017E+00  1.669091E-08 -4.635966E-06  1.025049E-14  6.823579E-15
       308  19  9.970937E-05  9.000013E+00  1.415916E-08  4.764703E-06  3.080241E-09  2.181442E-09
       308  20  9.965698E-05  9.000013E+00 -6.009784E-09  1.234408E-14  9.469654E-15 -5.957572E-11
       308  21  9.970937E-05  9.000013E+00  1.415917E-08 -4.764703E-06 -3.080234E-09  2.181493E-09
       308  22  9.560462E-05  9.000015E+00  7.712122E-09  4.705567E-06  1.479228E-08 -2.023316E-10
       308  23  9.554999E-05  9.000015E+00 -1.768597E-08  2.445909E-14  9.233367E-15 -2.443352E-09
       308  24  9.560462E-05  9.000015E+00  7.712130E-09 -4.705567E-06 -1.479227E-08 -2.022761E-10
       308  25  9.151487E-05  9.000017E+00  9.250865E-09  4.646431E-06  2.650431E-08 -2.586114E-09
       308  26  9.145799E-05  9.000017E+00 -2.137639E-08  1.695084E-14  7.597237E-15 -4.827118E-09
       308  27  9.151487E-05  9.000017E+00  9.250814E-09 -4.646431E-06 -2.650430E-08 -2.586034E-09
       309   1  9.980270E-05  9.000013E+00  3.415071E-08 -7.738857E-06  4.787134E-09  3.386208E-11
       309   2  9.993703E-05  9.000013E+00  2.372751E-08 -1.240482E-05 -7.173047E-09  3.354038E-09
       309   3  1.001300E-04  9.000014E+00  3.149761E-08 -1.752851E-05 -1.913323E-08 -7.930819E-09
       309   4  9.546282E-05  9.000015E+00 -3.172492E-09 -7.636050E-06 -1.266123E-08  2.905022E-09
       309   5  9.501092E-05  9.000016E+00 -1.646871E-08 -1.219941E-05 -4.422263E-09  7.899934E-09
       309   6  9.463226E-05  9.000016E+00  2.250672E-08 -1.722048E-05  3.816698E-09 -1.710167E-09
       309   7  9.124919E-05  9.000018E+00  1.088908E-08 -7.493063E-06 -2.624763E-08  5.776174E-09
       309   8  9.020333E-05  9.000018E+00 -2.330264E-08 -1.195381E-05  2.190485E-09  1.244584E-08
       309   9  8.924531E-05  9.000019E+00  2.885568E-08 -1.687228E-05  3.062860E-08  4.510482E-09
       309  10  9.976872E-05  9.000013E+00  2.051712E-08 -7.681315E-06 -2.281502E-15 -3.581216E-14
       309  11  9.989625E-05  9.000013E+00  3.288628E-09 -1.232665E-05 -4.165569E-15 -8.844202E-15
       309  12  1.000824E-04  9.000014E+00  4.253395E-09 -1.742971E-05 -5.199818E-15  3.358673E-14
       309  13  9.546494E-05  9.000015E+00 -1.336413E-09 -7.580777E-06 -5.848556E-15 -2.155921E-14
       309  14  9.500623E-05  9.000016E+00 -2.143795E-08 -1.212351E-05 -7.821691E-15 -5.810253E-15
       309  15  9.462077E-05  9.000016E+00  1.073219E-08 -1.712396E-05 -5.664983E-15  1.642630E-14
       309  16  9.128740E-05  9.000018E+00  2.819485E-08 -7.440057E-06 -7.170443E-15  1.245529E-15
       309  17  9.023474E-05  9.000018E+00 -1.280217E-08 -1.188018E-05 -1.021859E-14  7.512266E-16
       309  18  8.926992E-05  9.000019E+00  3.255084E-08 -1.677802E-05 -9.123105E-15 -9.286504E-16
       309  19  9.980270E-05  9.000013E+00  3.415072E-08 -7.738857E-06 -4.787131E-09 -3.396047E-11
       309  20  9.993703E-05  9.000013E+00  2.372753E-08 -1.240482E-05  7.173028E-09 -3.354044E-09
       309  21  1.001300E-04  9.000014E+00  3.149756E-08 -1.752851E-05  1.913321E-08  7.930895E-09
       309  22  9.546282E-05  9.000015E+00 -3.172474E-09 -7.636050E-06  1.266123E-08 -2.905078E-09
       309  23  9.501092E-05  9.000016E+00 -1.646872E-08 -1.219941E-05  4.422245E-09 -7.899947E-09
       309  24  9.463226E-05  9.000016E+00  2.250668E-08 -1.722048E-05 -3.816707E-09  1.710204E-09
       309  25  9.124919E-05  9.000018E+00  1.088913E-08 -7.493063E-06  2.624762E-08 -5.776174E-09
       309  26  9.020333E-05  9.000018E+00 -2.330264E-08 -1.195381E-05 -2.190505E-09 -1.244584E-08
       309  27  8.924531E-05  9.000019E+00  2.885567E-08 -1.687228E-05 -3.062860E-08 -4.510474E-09
       310   1  1.002617E-04  9.000014E+00  5.313582E-08 -2.067097E-05 -7.410888E-09 -6.833720E-09
       310   2  1.000845E-04  9.000015E+00 -1.726642E-08 -2.510721E-05  3.101773E-08 -2.662844E-09
       310   3  9.983130E-05  9.000015E+00 -4.955304E-08 -3.037383E-05  6.944634E-08 -2.995863E-08
       310   4  9.406840E-05  9.000017E+00 -3.171370E-08 -2.024196E-05 -2.192540E-08  2.935329E-10
       310   5  9.279873E-05  9.000017E+00 -6.214420E-08 -2.446354E-05  7.305772E-09  5.905142E-09
       310   6  9.148442E-05  9.000017E+00  1.896319E-08 -2.951550E-05  3.653693E-08 -1.994990E-08
       310   7  8.831841E-05  9.000019E+00  2.245081E-08 -1.976829E-05 -2.332779E-08  7.420777E-09
       310   8  8.592997E-05  9.000019E+00 -2.919791E-08 -2.377521E-05 -3.294054E-09  1.447314E-08
       310   9  8.352835E-05  9.000019E+00  1.041135E-07 -2.861250E-05  1.673967E-08 -9.941186E-09
       310  10  1.003462E-04  9.000014E+00  7.676569E-08 -2.051132E-05 -1.265631E-15  2.927020E-14
       310  11  1.001412E-04  9.000015E+00 -2.151796E-08 -2.494266E-05  6.286199E-15 -1.690148E-14
       310  12  9.986011E-05  9.000015E+00 -8.168607E-08 -3.020437E-05 -8.204244E-15 -2.009688E-14
       310  13  9.416156E-05  9.000017E+00 -4.407370E-09 -2.009160E-05  4.517801E-15  1.254843E-14
       310  14  9.286400E-05  9.000017E+00 -6.271932E-08 -2.430828E-05  6.592757E-15 -1.346030E-14
       310  15  9.152181E-05  9.000017E+00 -9.493412E-09 -2.935533E-05  2.449306E-16 -1.566691E-14
       310  16  8.842015E-05  9.000019E+00  5.343361E-08 -1.962723E-05  6.192044E-15  1.171510E-15
       310  17  8.600382E-05  9.000019E+00 -2.609657E-08 -2.362924E-05  1.176536E-14 -5.269911E-15
       310  18  8.357432E-05  9.000019E+00  7.933339E-08 -2.846163E-05  5.094727E-15 -1.144616E-14
       310  19  1.002617E-04  9.000014E+00  5.313578E-08 -2.067097E-05  7.410890E-09  6.833782E-09
       310  20  1.000845E-04  9.000015E+00 -1.726638E-08 -2.510721E-05 -3.101773E-08  2.662809E-09
       310  21  9.983130E-05  9.000015E+00 -4.955305E-08 -3.037383E-05 -6.944635E-08  2.995858E-08
       310  22  9.406840E-05  9.000017E+00 -3.171372E-08 -2.024196E-05  2.192541E-08 -2.934993E-10
       310  23  9.279873E-05  9.000017E+00 -6.214417E-08 -2.446354E-05 -7.305769E-09 -5.905172E-09
       310  24  9.148442E-05  9.000017E+00  1.896318E-08 -2.951550E-05 -3.653694E-08  1.994987E-08
       310  25  8.831841E-05  9.000019E+00  2.245082E-08 -1.976829E-05  2.332780E-08 -7.420767E-09
       310  26  8.592997E-05  9.000019E+00 -2.919784E-08 -2.377521E-05  3.294075E-09 -1.447315E-08
       310  27  8.352835E-05  9.000019E+00  1.041136E-07 -2.861250E-05 -1.673967E-08  9.941159E-09
       311   1  9.965361E-05  9.000015E+00  1.057435E-07 -3.344205E-05  1.161722E-09 -2.116622E-08
       311   2  9.819996E-05  9.000014E+00  2.070073E-07 -3.626985E-05 -5.482264E-08 -1.477345E-08
       311   3  9.612837E-05  9.000012E+00  1.221114E-07 -4.002736E-05 -1.108070E-07 -1.190392E-07
       311   4  8.991830E-05  9.000017E+00 -1.132056E-07 -3.225027E-05 -9.117524E-09 -8.155363E-10
       311   5  8.708365E-05  9.000015E+00 -1.760533E-08 -3.459924E-05 -4.046318E-08  3.967653E-08
       311   6  8.374172E-05  9.000012E+00  1.500384E-07 -3.787792E-05 -7.180882E-08 -3.048995E-08
       311   7  8.146714E-05  9.000019E+00  2.166624E-08 -3.108791E-05  8.683514E-09  1.953513E-08
       311   8  7.719532E-05  9.000017E+00 -1.943828E-08 -3.295805E-05  1.976555E-09  9.412647E-08
       311   9  7.252689E-05  9.000013E+00  2.697039E-07 -3.575790E-05 -4.730388E-09  5.805929E-08
       311  10  9.969947E-05  9.000015E+00  7.215161E-08 -3.320691E-05 -2.053110E-15 -2.064889E-14
       311  11  9.822100E-05  9.000014E+00  1.485966E-07 -3.597474E-05  8.079675E-15 -2.805660E-14
       311  12  9.612459E-05  9.000011E+00  3.888167E-08 -3.967227E-05  9.683788E-15 -9.362497E-15
       311  13  9.006912E-05  9.000017E+00 -1.018155E-07 -3.202341E-05 -3.847097E-15 -1.901998E-14
       311  14  8.720965E-05  9.000015E+00 -3.103409E-08 -3.431240E-05  3.493561E-17 -2.308831E-14
       311  15  8.384290E-05  9.000012E+00  1.117907E-07 -3.753111E-05  3.479960E-15  2.751420E-15
       311  16  8.172291E-05  9.000019E+00  7.803836E-08 -3.086932E-05 -4.889630E-15 -1.657661E-14
       311  17  7.742628E-05  9.000017E+00  1.211493E-08 -3.267948E-05 -2.242624E-15 -1.520335E-14
       311  18  7.273302E-05  9.000013E+00  2.764382E-07 -3.541935E-05  2.841775E-15 -3.282419E-15
       311  19  9.965361E-05  9.000015E+00  1.057435E-07 -3.344205E-05 -1.161720E-09  2.116616E-08
       311  20  9.819996E-05  9.000014E+00  2.070073E-07 -3.626985E-05  5.482266E-08  1.477340E-08
       311  21  9.612837E-05  9.000012E+00  1.221113E-07 -4.002736E-05  1.108070E-07  1.190392E-07
       311  22  8.991830E-05  9.000017E+00 -1.132056E-07 -3.225027E-05  9.117521E-09  8.154953E-10
       311  23  8.708365E-05  9.000015E+00 -1.760531E-08 -3.459924E-05  4.046318E-08 -3.967655E-08
       311  24  8.374172E-05  9.000012E+00  1.500384E-07 -3.787792E-05  7.180884E-08  3.048996E-08
       311  25  8.146714E-05  9.000019E+00  2.166623E-08 -3.108791E-05 -8.683524E-09 -1.953517E-08
       311  26  7.719532E-05  9.000017E+00 -1.943825E-08 -3.295805E-05 -1.976561E-09 -9.412649E-08
       311  27  7.252689E-05  9.000013E+00  2.697039E-07 -3.575790E-05  4.730398E-09 -5.805928E-08
       312   1  9.465511E-05  9.000010E+00  1.854947E-07 -4.135180E-05  3.412185E-09 -1.130703E-07
       312   2  8.950710E-05  9.000003E+00 -8.767118E-08 -3.822685E-05 -1.185280E-08  5.826152E-08
       312   3  8.215741E-05  8.999990E+00 -6.859488E-07 -3.489500E-05 -2.711780E-08  1.910565E-07
       312   4  8.025047E-05  9.000009E+00 -2.685342E-07 -3.847509E-05  4.207125E-08 -4.633469E-08
       312   5  7.499808E-05  9.000001E+00 -1.562775E-07 -3.500457E-05 -6.835154E-08  1.593571E-08
       312   6  6.758253E-05  8.999986E+00 -2.792130E-07 -3.132716E-05 -1.787743E-07  3.966919E-08
       312   7  6.830410E-05  9.000010E+00 -1.486363E-07 -3.592804E-05  1.150214E-07  2.040096E-08
       312   8  6.287873E-05  9.000000E+00  1.890177E-07 -3.211196E-05 -9.055913E-08 -2.639010E-08
       312   9  5.532875E-05  8.999983E+00  3.813990E-07 -2.808898E-05 -2.961397E-07 -1.117181E-07
       312  10  9.535050E-05  9.000010E+00  3.645539E-07 -4.086103E-05 -2.736701E-15  2.028148E-15
       312  11  9.000265E-05  9.000003E+00 -1.084611E-07 -3.779299E-05 -1.253803E-14  3.028895E-15
       312  12  8.245311E-05  8.999989E+00 -9.065879E-07 -3.451806E-05 -1.016557E-14  4.545893E-16
       312  13  8.084626E-05  9.000009E+00 -1.321627E-07 -3.805093E-05  1.556311E-15  6.533021E-15
       312  14  7.539402E-05  9.000001E+00 -2.197552E-07 -3.463733E-05 -5.008954E-15  6.161418E-16
       312  15  6.777862E-05  8.999985E+00 -5.425399E-07 -3.101683E-05 -6.341566E-15 -6.596538E-15
       312  16  6.880028E-05  9.000010E+00 -5.495261E-08 -3.557049E-05  4.572552E-15  2.842632E-15
       312  17  6.317506E-05  8.999999E+00  8.285228E-08 -3.181133E-05  3.933275E-15 -1.526851E-15
       312  18  5.542523E-05  8.999982E+00  7.538447E-08 -2.784527E-05  4.729050E-15  3.753966E-16
       312  19  9.465511E-05  9.000010E+00  1.854947E-07 -4.135180E-05 -3.412186E-09  1.130704E-07
       312  20  8.950710E-05  9.000003E+00 -8.767122E-08 -3.822685E-05  1.185281E-08 -5.826151E-08
       312  21  8.215741E-05  8.999990E+00 -6.859489E-07 -3.489500E-05  2.711779E-08 -1.910565E-07
       312  22  8.025047E-05  9.000009E+00 -2.685342E-07 -3.847509E-05 -4.207124E-08  4.633472E-08
       312  23  7.499808E-05  9.000001E+00 -1.562775E-07 -3.500457E-05  6.835152E-08 -1.593571E-08
       312  24  6.758253E-05  8.999986E+00 -2.792130E-07 -3.132716E-05  1.787743E-07 -3.966921E-08
       312  25  6.830410E-05  9.000010E+00 -1.486364E-07 -3.592804E-05 -1.150214E-07 -2.040094E-08
       312  26  6.287873E-05  9.000000E+00  1.890177E-07 -3.211196E-05  9.055913E-08  2.639010E-08
       312  27  5.532875E-05  8.999983E+00  3.813991E-07 -2.808898E-05  2.961397E-07  1.117181E-07
       313   1  7.696755E-05  8.999979E+00 -1.216441E-06 -2.953477E-05  3.991240E-07  9.730750E-08
       313   2  7.607464E-05  8.999952E+00  1.089231E-06 -1.408063E-05  9.659034E-07 -2.874626E-07
       313   3  6.789978E-05  8.999904E+00 -6.879542E-09  2.631460E-06  1.532683E-06 -6.020278E-07
       313   4  6.184073E-05  8.999974E+00 -1.037878E-06 -2.596569E-05  3.401224E-07  7.639393E-10
       313   5  6.195105E-05  8.999945E+00  1.089257E-06 -1.246876E-05  4.976323E-07 -8.647467E-08
       313   6  5.470921E-05  8.999895E+00 -3.492023E-07  2.286115E-06  6.551421E-07 -1.035084E-07
       313   7  4.877304E-05  8.999969E+00 -8.551521E-07 -2.281505E-05  3.708150E-07 -9.577962E-08
       313   8  4.970720E-05  8.999938E+00  6.748731E-07 -1.127534E-05  1.190553E-07  1.145133E-07
       313   9  4.321900E-05  8.999886E+00 -1.524507E-06  1.522328E-06 -1.327044E-07  3.950110E-07
       313  10  7.899384E-05  8.999979E+00 -7.065255E-07 -2.963366E-05  6.811063E-16  1.127621E-14
       313  11  7.823385E-05  8.999952E+00  1.732057E-06 -1.451280E-05  6.996748E-15  1.314460E-14
       313  12  7.019190E-05  8.999904E+00  7.688577E-07  1.866015E-06  1.329609E-14 -4.598105E-14
       313  13  6.328379E-05  8.999973E+00 -7.779223E-07 -2.602027E-05  5.752145E-15  3.946058E-15
       313  14  6.352701E-05  8.999945E+00  1.482124E-06 -1.285662E-05  1.058801E-14  3.223758E-17
       313  15  5.641809E-05  8.999895E+00  1.765757E-07  1.564973E-06  2.315984E-14 -3.598252E-14
       313  16  4.963286E-05  8.999968E+00 -8.451553E-07 -2.282533E-05  9.544553E-15  3.742457E-15
       313  17  5.069993E-05  8.999938E+00  8.177808E-07 -1.161889E-05  1.007064E-14 -5.736452E-16
       313  18  4.434464E-05  8.999886E+00 -1.248688E-06  8.454906E-07  2.068105E-14 -3.030570E-14
       313  19  7.696755E-05  8.999979E+00 -1.216441E-06 -2.953477E-05 -3.991240E-07 -9.730747E-08
       313  20  7.607464E-05  8.999952E+00  1.089231E-06 -1.408063E-05 -9.659034E-07  2.874626E-07
       313  21  6.789978E-05  8.999904E+00 -6.879589E-09  2.631460E-06 -1.532683E-06  6.020278E-07
       313  22  6.184073E-05  8.999974E+00 -1.037878E-06 -2.596569E-05 -3.401224E-07 -7.639342E-10
       313  23  6.195105E-05  8.999945E+00  1.089257E-06 -1.246876E-05 -4.976323E-07  8.647467E-08
       313  24  5.470921E-05  8.999895E+00 -3.492023E-07  2.286115E-06 -6.551421E-07  1.035084E-07
       313  25  4.877304E-05  8.999969E+00 -8.551521E-07 -2.281505E-05 -3.708150E-07  9.577962E-08
       313  26  4.970720E-05  8.999938E+00  6.748731E-07 -1.127534E-05 -1.190553E-07 -1.145133E-07
       313  27  4.321900E-05  8.999886E+00 -1.524507E-06  1.522328E-06  1.327045E-07 -3.950110E-07
       314   1  7.716026E-05  8.999860E+00  2.933707E-06  2.303729E-05 -1.957953E-06 -3.002522E-07
       314   2  9.081309E-05  8.999764E+00  2.296072E-06  8.375337E-06 -6.874243E-06  3.426762E-07
       314   3  1.079054E-04  8.999678E+00  2.002473E-06 -1.334657E-05 -1.179053E-05 -4.208286E-08
       314   4  6.414881E-05  8.999854E+00  2.282800E-06  1.510523E-05 -8.117855E-07  1.244065E-07
       314   5  7.143931E-05  8.999769E+00 -3.137171E-07  3.623870E-06 -3.066622E-06  2.159815E-07
       314   6  8.319703E-05  8.999696E+00 -1.682607E-07 -1.491743E-05 -5.321458E-06 -7.201311E-07
       314   7  5.276768E-05  8.999849E+00  1.235219E-06  9.834811E-06 -1.759763E-07  5.490651E-07
       314   8  5.471657E-05  8.999776E+00 -9.385087E-07  1.534053E-06  2.306414E-07  8.928667E-08
       314   9  6.216035E-05  8.999717E+00  2.027675E-06 -1.382665E-05  6.372591E-07 -1.398179E-06
       314  10  6.901485E-05  8.999856E+00 -6.538775E-07  2.225966E-05  6.638227E-15 -4.821918E-14
       314  11  8.319572E-05  8.999761E+00 -7.634788E-07  9.979179E-06 -6.621489E-15 -2.483513E-17
       314  12  1.008161E-04  8.999677E+00 -5.290446E-07 -9.361253E-06 -1.184204E-14  7.740442E-15
       314  13  6.017098E-05  8.999852E+00  4.813200E-07  1.450361E-05  8.225579E-15 -3.925005E-14
       314  14  6.798952E-05  8.999768E+00 -1.587163E-06  5.403723E-06 -4.894061E-15 -6.560318E-15
       314  15  8.027526E-05  8.999697E+00 -9.136738E-07 -1.075611E-05 -5.687491E-15  3.712966E-15
       314  16  5.295743E-05  8.999849E+00  1.219844E-06  9.409202E-06  8.711782E-15 -3.131871E-14
       314  17  5.543435E-05  8.999777E+00 -4.258501E-07  3.489917E-06 -5.927201E-15 -5.089512E-15
       314  18  6.340616E-05  8.999719E+00  3.068366E-06 -9.489315E-06 -9.495141E-15 -2.501032E-17
       314  19  7.716026E-05  8.999860E+00  2.933707E-06  2.303729E-05  1.957953E-06  3.002521E-07
       314  20  9.081309E-05  8.999764E+00  2.296072E-06  8.375337E-06  6.874243E-06 -3.426763E-07
       314  21  1.079054E-04  8.999678E+00  2.002473E-06 -1.334657E-05  1.179053E-05  4.208286E-08
       314  22  6.414881E-05  8.999854E+00  2.282800E-06  1.510523E-05  8.117856E-07 -1.244066E-07
       314  23  7.143931E-05  8.999769E+00 -3.137171E-07  3.623870E-06  3.066622E-06 -2.159815E-07
       314  24  8.319703E-05  8.999696E+00 -1.682607E-07 -1.491743E-05  5.321458E-06  7.201311E-07
       314  25  5.276768E-05  8.999849E+00  1.235219E-06  9.834811E-06  1.759763E-07 -5.490652E-07
       314  26  5.471657E-05  8.999776E+00 -9.385087E-07  1.534053E-06 -2.306414E-07 -8.928667E-08
       314  27  6.216035E-05  8.999717E+00  2.027675E-06 -1.382665E-05 -6.372591E-07  1.398179E-06
       315   1  8.076833E-05  8.999649E+00 -2.651276E-06 -6.127019E-05 -1.287987E-05  1.219189E-06
       315   2  5.532275E-05  8.999658E+00  6.940781E-06 -6.064630E-05 -1.730788E-06  3.062583E-06
       315   3  1.944521E-05  8.999656E+00 -6.258027E-06 -5.199356E-05  9.418299E-06 -5.767447E-07
       315   4  6.367927E-05  8.999666E+00 -3.564833E-06 -4.602173E-05 -6.353026E-06  3.868689E-07
       315   5  4.025569E-05  8.999651E+00  2.744619E-06 -4.317968E-05 -1.347043E-06  2.251465E-06
       315   6  1.188288E-05  8.999629E+00 -9.437731E-07 -3.230877E-05  3.658939E-06 -1.366662E-06
       315   7  5.243369E-05  8.999687E+00  4.705056E-07 -3.546383E-05  9.985664E-07 -4.454507E-07
       315   8  2.938262E-05  8.999645E+00 -3.514502E-07 -3.040361E-05 -1.385549E-07  1.440346E-06
       315   9  6.865037E-06  8.999603E+00  1.621769E-06 -1.731454E-05 -1.275676E-06 -2.156579E-06
       315  10  8.982606E-05  8.999654E+00  1.520583E-06 -5.487013E-05 -5.082406E-15 -3.179482E-15
       315  11  6.254866E-05  8.999659E+00  9.280818E-06 -5.679754E-05 -1.052312E-14 -5.730844E-15
       315  12  2.483930E-05  8.999652E+00 -5.749812E-06 -5.069611E-05 -2.174492E-14  2.380072E-14
       315  13  6.827222E-05  8.999669E+00 -1.306454E-06 -4.023228E-05  1.384947E-15 -6.208824E-15
       315  14  4.301682E-05  8.999650E+00  3.171176E-06 -3.994153E-05 -6.300058E-15 -1.052623E-14
       315  15  1.281218E-05  8.999624E+00 -2.349038E-06 -3.162193E-05 -2.379754E-14  9.984541E-15
       315  16  5.256185E-05  8.999688E+00  8.154037E-07 -3.028498E-05 -2.903704E-15 -7.659087E-15
       315  17  2.767895E-05  8.999642E+00 -1.838374E-06 -2.777607E-05 -8.700566E-15 -1.272988E-14
       315  18  3.329550E-06  8.999595E+00 -1.696976E-06 -1.723830E-05 -2.619796E-14  2.698521E-15
       315  19  8.076833E-05  8.999649E+00 -2.651276E-06 -6.127019E-05  1.287987E-05 -1.219189E-06
       315  20  5.532275E-05  8.999658E+00  6.940781E-06 -6.064630E-05  1.730788E-06 -3.062583E-06
       315  21  1.944521E-05  8.999656E+00 -6.258027E-06 -5.199356E-05 -9.418299E-06  5.767447E-07
       315  22  6.367927E-05  8.999666E+00 -3.564832E-06 -4.602173E-05  6.353026E-06 -3.868689E-07
       315  23  4.025569E-05  8.999651E+00  2.744619E-06 -4.317968E-05  1.347043E-06 -2.251465E-06
       315  24  1.188288E-05  8.999629E+00 -9.437732E-07 -3.230877E-05 -3.658940E-06  1.366662E-06
       315  25  5.243369E-05  8.999687E+00  4.705057E-07 -3.546383E-05 -9.985664E-07  4.454507E-07
       315  26  2.938262E-05  8.999645E+00 -3.514502E-07 -3.040361E-05  1.385549E-07 -1.440346E-06
       315  27  6.865037E-06  8.999603E+00  1.621769E-06 -1.731454E-05  1.275676E-06  2.156580E-06
       401   1  2.814958E-06  8.999588E+00  2.375626E-07  1.306910E-05  2.301547E-06  2.855838E-07
       401   2  2.586852E-05  8.999648E+00  8.303563E-07  2.207863E-05 -2.682389E-07 -3.266933E-07
       401   3  4.318040E-05  8.999689E+00 -1.246257E-07  2.532589E-05 -2.838025E-06 -4.362913E-07
       401   4 -5.466627E-07  8.999578E+00 -1.902567E-07  6.570214E-06  1.316145E-06  3.631877E-07
       401   5  1.724496E-05  8.999645E+00  7.929984E-07  1.467569E-05 -3.387811E-08 -1.796715E-07
       401   6  2.879223E-05  8.999693E+00 -9.444402E-07  1.701890E-05 -1.383901E-06 -2.198516E-07
       401   7 -1.156929E-06  8.999569E+00 -1.059321E-06  1.706144E-06  1.625720E-07  4.407916E-07
       401   8  1.170910E-05  8.999643E+00  1.099191E-06  8.907574E-06  3.231222E-08 -3.264970E-08
       401   9  1.782809E-05  8.999698E+00 -6.359087E-07  1.034673E-05 -9.794760E-08 -3.411860E-09
       401  10  6.365597E-07  8.999586E+00 -1.193032E-06  1.206983E-05  3.378554E-15  1.178502E-14
       401  11  2.414660E-05  8.999646E+00 -1.437598E-07  2.180568E-05  1.767173E-16 -1.395668E-14
       401  12  4.191496E-05  8.999689E+00 -6.422631E-07  2.577925E-05  7.525838E-15 -1.077123E-14
       401  13 -1.454005E-06  8.999576E+00 -1.076113E-06  5.723101E-06  3.787451E-16  1.020198E-14
       401  14  1.679410E-05  8.999644E+00  3.636206E-07  1.455490E-05  1.110107E-15 -8.520089E-15
       401  15  2.879784E-05  8.999693E+00 -9.173394E-07  1.762442E-05  1.029147E-14 -1.132728E-14
       401  16 -7.932153E-07  8.999568E+00 -1.400439E-06  1.011190E-06 -7.629900E-15  1.454386E-14
       401  17  1.252930E-05  8.999643E+00  1.214551E-06  8.938937E-06 -6.219969E-15 -2.656116E-15
       401  18  1.910477E-05  8.999699E+00 -6.406958E-08  1.110441E-05  1.561478E-15 -8.577787E-15
       401  19  2.814958E-06  8.999588E+00  2.375626E-07  1.306910E-05 -2.301547E-06 -2.855837E-07
       401  20  2.586852E-05  8.999648E+00  8.303563E-07  2.207863E-05  2.682389E-07  3.266933E-07
       401  21  4.318040E-05  8.999689E+00 -1.246257E-07  2.532589E-05  2.838025E-06  4.362913E-07
       401  22 -5.466627E-07  8.999578E+00 -1.902567E-07  6.570214E-06 -1.316145E-06 -3.631877E-07
       401  23  1.724496E-05  8.999645E+00  7.929984E-07  1.467569E-05  3.387812E-08  1.796715E-07
       401  24  2.879223E-05  8.999693E+00 -9.444403E-07  1.701890E-05  1.383901E-06  2.198515E-07
       401  25 -1.156929E-06  8.999569E+00 -1.059321E-06  1.706144E-06 -1.625721E-07 -4.407916E-07
       401  26  1.170910E-05  8.999643E+00  1.099191E-06  8.907573E-06 -3.231223E-08  3.264971E-08
       401  27  1.782809E-05  8.999698E+00 -6.359087E-07  1.034673E-05  9.794760E-08  3.411856E-09
       402   1  4.939384E-05  8.999717E+00  2.764815E-07  9.641086E-06 -1.970889E-06 -2.313634E-07
       402   2  4.741824E-05  8.999782E+00  1.452711E-07  7.106601E-07 -9.584858E-07  1.105609E-07
       402   3  4.711708E-05  8.999850E+00  1.820874E-06 -6.669022E-06  5.391754E-08  2.240901E-07
       402   4  3.614781E-05  8.999723E+00 -5.294514E-08  7.836782E-06 -8.900262E-07 -3.552020E-08
       402   5  3.477061E-05  8.999783E+00 -7.138184E-07  1.229132E-06 -4.572994E-07  1.662066E-07
       402   6  3.529627E-05  8.999847E+00  9.650432E-07 -3.827774E-06 -2.457265E-08  1.395381E-07
       402   7  2.593644E-05  8.999730E+00  7.061249E-07  5.221681E-06  2.444224E-07  1.603230E-07
       402   8  2.505049E-05  8.999785E+00 -7.344775E-07  9.368071E-07  9.747259E-08  2.218522E-07
       402   9  2.629578E-05  8.999845E+00  6.975771E-07 -1.797322E-06 -4.947722E-08  5.498616E-08
       402  10  5.088284E-05  8.999718E+00  9.689458E-07  1.079498E-05  7.943466E-15 -7.588918E-15
       402  11  4.862894E-05  8.999782E+00  5.594456E-07  1.515441E-06  1.300315E-14  1.626738E-15
       402  12  4.804949E-05  8.999849E+00  1.956758E-06 -6.213350E-06  1.335659E-14  2.292048E-14
       402  13  3.702586E-05  8.999724E+00  3.776873E-07  8.897909E-06  1.008144E-14 -6.499516E-15
       402  14  3.537038E-05  8.999783E+00 -5.614759E-07  1.941150E-06  8.960058E-15  4.059996E-15
       402  15  3.561774E-05  8.999846E+00  8.390958E-07 -3.464865E-06  3.952841E-15  1.509674E-14
       402  16  2.620355E-05  8.999730E+00  8.749254E-07  6.190044E-06 -2.294104E-16 -4.422825E-15
       402  17  2.503931E-05  8.999785E+00 -8.439669E-07  1.556062E-06  1.725665E-16  3.255644E-15
       402  18  2.600631E-05  8.999844E+00  3.097977E-07 -1.527177E-06 -6.036173E-17  1.070823E-14
       402  19  4.939384E-05  8.999717E+00  2.764814E-07  9.641086E-06  1.970889E-06  2.313634E-07
       402  20  4.741824E-05  8.999782E+00  1.452711E-07  7.106601E-07  9.584858E-07 -1.105609E-07
       402  21  4.711708E-05  8.999850E+00  1.820874E-06 -6.669022E-06 -5.391751E-08 -2.240901E-07
       402  22  3.614781E-05  8.999723E+00 -5.294521E-08  7.836782E-06  8.900262E-07  3.552020E-08
       402  23  3.477061E-05  8.999783E+00 -7.138184E-07  1.229132E-06  4.572994E-07 -1.662066E-07
       402  24  3.529627E-05  8.999847E+00  9.650432E-07 -3.827774E-06  2.457266E-08 -1.395381E-07
       402  25  2.593644E-05  8.999730E+00  7.061249E-07  5.221680E-06 -2.444224E-07 -1.603230E-07
       402  26  2.505049E-05  8.999785E+00 -7.344776E-07  9.368071E-07 -9.747258E-08 -2.218522E-07
       402  27  2.629578E-05  8.999845E+00  6.975771E-07 -1.797322E-06  4.947721E-08 -5.498614E-08
       403   1  3.751471E-05  8.999883E+00 -1.845125E-06 -1.286606E-06  3.204854E-07  9.529441E-08
       403   2  4.273338E-05  8.999933E+00 -3.520860E-07  9.837713E-06 -3.130853E-08 -1.112744E-07
       403   3  4.234659E-05  8.999966E+00 -9.202941E-07  2.095081E-05 -3.831025E-07 -4.693466E-09
       403   4  2.926999E-05  8.999880E+00 -1.030451E-06 -2.306939E-09  2.350971E-07 -1.281561E-08
       403   5  3.429736E-05  8.999930E+00  5.397149E-07  9.072896E-06 -5.119399E-08 -1.601439E-07
       403   6  3.340612E-05  8.999962E+00 -6.820486E-07  1.813688E-05 -3.374851E-07  5.677532E-09
       403   7  2.190356E-05  8.999878E+00 -5.178308E-07  1.160465E-06  1.485521E-07 -1.209256E-07
       403   8  2.674194E-05  8.999927E+00  1.134861E-06  8.186552E-06 -7.223619E-08 -2.090134E-07
       403   9  2.534857E-05  8.999958E+00 -7.350598E-07  1.520142E-05 -2.930245E-07  1.604853E-08
       403  10  3.827505E-05  8.999882E+00 -1.817745E-06 -1.225147E-06  1.247068E-14  1.570905E-14
       403  11  4.356297E-05  8.999932E+00 -2.554574E-07  9.830868E-06  8.839282E-15 -1.656679E-15
       403  12  4.324543E-05  8.999966E+00 -7.544173E-07  2.087567E-05  1.105123E-14  2.268159E-14
       403  13  2.991080E-05  8.999879E+00 -1.054299E-06  8.223489E-08  5.774311E-15  1.188627E-14
       403  14  3.500742E-05  8.999929E+00  5.851154E-07  9.089134E-06 -2.862223E-16 -3.499264E-15
       403  15  3.418543E-05  8.999962E+00 -5.673998E-07  1.808482E-05 -3.353888E-15  1.311561E-14
       403  16  2.242484E-05  8.999877E+00 -5.929066E-07  1.268089E-06  6.372337E-16  1.215593E-14
       403  17  2.733247E-05  8.999926E+00  1.129033E-06  8.225873E-06 -4.828993E-15  2.211988E-15
       403  18  2.600835E-05  8.999958E+00 -6.716390E-07  1.517244E-05 -1.191775E-14  1.298906E-14
       403  19  3.751471E-05  8.999883E+00 -1.845125E-06 -1.286606E-06 -3.204854E-07 -9.529437E-08
       403  20  4.273338E-05  8.999933E+00 -3.520860E-07  9.837713E-06  3.130856E-08  1.112744E-07
       403  21  4.234659E-05  8.999966E+00 -9.202941E-07  2.095081E-05  3.831025E-07  4.693509E-09
       403  22  2.926999E-05  8.999880E+00 -1.030451E-06 -2.307007E-09 -2.350971E-07  1.281564E-08
       403  23  3.429736E-05  8.999930E+00  5.397149E-07  9.072896E-06  5.119400E-08  1.601439E-07
       403  24  3.340612E-05  8.999962E+00 -6.820487E-07  1.813688E-05  3.374851E-07 -5.677514E-09
       403  25  2.190356E-05  8.999878E+00 -5.178308E-07  1.160465E-06 -1.485521E-07  1.209257E-07
       403  26  2.674194E-05  8.999927E+00  1.134861E-06  8.186552E-06  7.223618E-08  2.090134E-07
       403  27  2.534857E-05  8.999958E+00 -7.350598E-07  1.520142E-05  2.930245E-07 -1.604852E-08
       404   1  4.917121E-05  8.999982E+00  7.958713E-07  2.626050E-05  3.215133E-07  5.741492E-08
       404   2  5.671059E-05  8.999999E+00  4.449162E-07  3.012004E-05  9.231760E-08 -1.535539E-08
       404   3  6.183882E-05  9.000009E+00 -3.364235E-07  3.377475E-05 -1.368781E-07 -5.324892E-08
       404   4  3.860582E-05  8.999977E+00  1.562589E-07  2.270414E-05  3.001575E-07  8.547225E-08
       404   5  4.656196E-05  8.999997E+00  1.398111E-07  2.648428E-05  8.496633E-08  1.424031E-08
       404   6  5.207207E-05  9.000008E+00 -3.884004E-07  3.005960E-05 -1.302248E-07 -2.211484E-08
       404   7  2.983570E-05  8.999973E+00 -3.594480E-07  1.947795E-05  2.581643E-07  1.135296E-07
       404   8  3.824986E-05  8.999995E+00  5.491891E-08  2.317870E-05  5.697778E-08  4.383600E-08
       404   9  4.418313E-05  9.000008E+00 -1.238571E-07  2.667463E-05 -1.442088E-07  9.019230E-09
       404  10  4.949562E-05  8.999981E+00  7.350844E-07  2.605451E-05  1.246029E-14  2.362356E-14
       404  11  5.708316E-05  8.999999E+00  4.322940E-07  2.991147E-05  7.992773E-15  7.767847E-15
       404  12  6.225956E-05  9.000009E+00 -3.008812E-07  3.356361E-05  4.550063E-15  2.648956E-14
       404  13  3.892572E-05  8.999977E+00  9.354051E-08  2.251420E-05  5.430662E-16  1.264640E-14
       404  14  4.693002E-05  8.999996E+00  1.252574E-07  2.629178E-05 -5.141124E-17  3.537237E-16
       404  15  5.248830E-05  9.000008E+00 -3.547896E-07  2.986452E-05  1.159836E-15  1.939241E-14
       404  16  3.015109E-05  8.999973E+00 -4.240979E-07  1.930407E-05 -1.331238E-14  1.335120E-14
       404  17  3.861342E-05  8.999994E+00  3.843362E-08  2.300225E-05 -4.023276E-15  2.066672E-15
       404  18  4.459485E-05  9.000008E+00 -9.217781E-08  2.649561E-05  1.864730E-15  1.771327E-14
       404  19  4.917121E-05  8.999982E+00  7.958712E-07  2.626050E-05 -3.215133E-07 -5.741487E-08
       404  20  5.671059E-05  8.999999E+00  4.449162E-07  3.012004E-05 -9.231757E-08  1.535541E-08
       404  21  6.183882E-05  9.000009E+00 -3.364235E-07  3.377475E-05  1.368781E-07  5.324897E-08
       404  22  3.860582E-05  8.999977E+00  1.562588E-07  2.270414E-05 -3.001575E-07 -8.547221E-08
       404  23  4.656196E-05  8.999997E+00  1.398111E-07  2.648428E-05 -8.496633E-08 -1.424031E-08
       404  24  5.207207E-05  9.000008E+00 -3.884004E-07  3.005960E-05  1.302248E-07  2.211488E-08
       404  25  2.983570E-05  8.999973E+00 -3.594480E-07  1.947795E-05 -2.581644E-07 -1.135295E-07
       404  26  3.824986E-05  8.999995E+00  5.491892E-08  2.317870E-05 -5.697780E-08 -4.383601E-08
       404  27  4.418313E-05  9.000008E+00 -1.238571E-07  2.667463E-05  1.442088E-07 -9.019186E-09
       405   1  6.632433E-05  9.000013E+00  5.831175E-08  3.391512E-05 -4.754291E-09 -4.266471E-08
       405   2  7.190518E-05  9.000018E+00  2.534811E-08  3.165205E-05 -8.225211E-09 -1.728051E-08
       405   3  7.674814E-05  9.000020E+00  4.013732E-08  2.979503E-05 -1.169613E-08 -3.274701E-08
       405   4  5.721017E-05  9.000013E+00  1.512373E-07  3.048619E-05  3.195532E-08 -1.180235E-08
       405   5  6.340976E-05  9.000018E+00 -7.609319E-08  2.862703E-05  1.496633E-08  1.110966E-08
       405   6  6.891230E-05  9.000021E+00 -1.603525E-07  2.717392E-05 -2.022646E-09 -6.829040E-09
       405   7  4.934703E-05  9.000014E+00  3.422395E-07  2.712841E-05  4.403196E-08  1.905997E-08
       405   8  5.621462E-05  9.000019E+00  3.549597E-08  2.567316E-05  1.352490E-08  3.949981E-08
       405   9  6.242601E-05  9.000023E+00 -3.285786E-08  2.462396E-05 -1.698215E-08  1.908892E-08
       405  10  6.648244E-05  9.000013E+00 -1.933972E-09  3.370630E-05  5.369334E-15  1.899255E-14
       405  11  7.211594E-05  9.000018E+00  1.774538E-08  3.144842E-05  3.643167E-15 -6.269072E-15
       405  12  7.701154E-05  9.000020E+00  8.517749E-08  2.959658E-05  1.331096E-16  1.325286E-14
       405  13  5.737735E-05  9.000013E+00  9.487692E-08  3.029492E-05  4.239119E-16  1.636106E-14
       405  14  6.362958E-05  9.000018E+00 -7.981058E-08  2.844095E-05  9.105258E-16 -7.348173E-15
       405  15  6.918477E-05  9.000021E+00 -1.114269E-07  2.699302E-05  1.663811E-16  5.089163E-15
       405  16  4.952328E-05  9.000013E+00  2.897644E-07  2.695469E-05 -5.779720E-16  1.991894E-14
       405  17  5.644351E-05  9.000019E+00  3.566392E-08  2.550463E-05 -2.106599E-15  2.588120E-15
       405  18  6.270754E-05  9.000023E+00  1.995307E-08  2.446061E-05 -5.582207E-15  1.078857E-14
       405  19  6.632433E-05  9.000013E+00  5.831178E-08  3.391512E-05  4.754298E-09  4.266475E-08
       405  20  7.190518E-05  9.000018E+00  2.534811E-08  3.165205E-05  8.225215E-09  1.728050E-08
       405  21  7.674814E-05  9.000020E+00  4.013728E-08  2.979503E-05  1.169613E-08  3.274704E-08
       405  22  5.721017E-05  9.000013E+00  1.512373E-07  3.048619E-05 -3.195532E-08  1.180240E-08
       405  23  6.340976E-05  9.000018E+00 -7.609317E-08  2.862703E-05 -1.496633E-08 -1.110967E-08
       405  24  6.891230E-05  9.000021E+00 -1.603525E-07  2.717392E-05  2.022657E-09  6.829054E-09
       405  25  4.934703E-05  9.000014E+00  3.422394E-07  2.712841E-05 -4.403196E-08 -1.905993E-08
       405  26  5.621462E-05  9.000019E+00  3.549595E-08  2.567316E-05 -1.352491E-08 -3.949981E-08
       405  27  6.242601E-05  9.000023E+00 -3.285786E-08  2.462396E-05  1.698214E-08 -1.908890E-08
       406   1  7.912509E-05  9.000020E+00  9.937867E-08  2.745143E-05 -1.162468E-08 -3.305108E-08
       406   2  8.214741E-05  9.000021E+00  2.826316E-08  2.302293E-05  7.409216E-09 -1.166283E-08
       406   3  8.506572E-05  9.000020E+00  7.513920E-08  1.912215E-05  2.644311E-08 -2.033247E-08
       406   4  7.219062E-05  9.000022E+00  6.695452E-08  2.517707E-05 -1.251639E-08 -8.572233E-09
       406   5  7.591617E-05  9.000022E+00 -8.429701E-08  2.115189E-05  1.227903E-08  1.034268E-08
       406   6  7.956775E-05  9.000022E+00 -4.742188E-08  1.765443E-05  3.707444E-08 -8.003036E-10
       406   7  6.600908E-05  9.000024E+00  1.463811E-07  2.289319E-05 -2.446305E-08  1.590660E-08
       406   8  7.045995E-05  9.000024E+00 -3.341671E-08  1.927134E-05  6.093902E-09  3.234817E-08
       406   9  7.486693E-05  9.000025E+00  4.504727E-08  1.617720E-05  3.665085E-08  1.873183E-08
       406  10  7.916235E-05  9.000020E+00  5.993102E-08  2.730520E-05 -5.398446E-15  1.838193E-14
       406  11  8.220677E-05  9.000021E+00  1.090668E-08  2.289230E-05 -7.766339E-15  1.154097E-14
       406  12  8.514717E-05  9.000020E+00  7.987383E-08  1.900711E-05 -4.832580E-15  1.988322E-14
       406  13  7.225518E-05  9.000022E+00  3.920154E-08  2.503820E-05 -2.168869E-15  1.069045E-14
       406  14  7.600281E-05  9.000022E+00 -8.995886E-08  2.102862E-05 -1.710737E-15 -2.190078E-15
       406  15  7.967649E-05  9.000022E+00 -3.099262E-08  1.754675E-05 -6.447842E-16  3.574980E-15
       406  16  6.610092E-05  9.000024E+00  1.303228E-07  2.276169E-05 -2.992765E-15  1.421798E-14
       406  17  7.057389E-05  9.000024E+00 -2.738392E-08  1.915543E-05  2.763858E-15  1.665705E-15
       406  18  7.500295E-05  9.000024E+00  7.317118E-08  1.607688E-05  4.019856E-15  4.871236E-15
       406  19  7.912509E-05  9.000020E+00  9.937864E-08  2.745143E-05  1.162467E-08  3.305113E-08
       406  20  8.214741E-05  9.000021E+00  2.826313E-08  2.302293E-05 -7.409224E-09  1.166283E-08
       406  21  8.506572E-05  9.000020E+00  7.513921E-08  1.912215E-05 -2.644312E-08  2.033250E-08
       406  22  7.219062E-05  9.000022E+00  6.695451E-08  2.517707E-05  1.251638E-08  8.572274E-09
       406  23  7.591617E-05  9.000022E+00 -8.429700E-08  2.115189E-05 -1.227903E-08 -1.034268E-08
       406  24  7.956775E-05  9.000022E+00 -4.742188E-08  1.765443E-05 -3.707446E-08  8.003153E-10
       406  25  6.600908E-05  9.000024E+00  1.463811E-07  2.289319E-05  2.446305E-08 -1.590656E-08
       406  26  7.045995E-05  9.000024E+00 -3.341670E-08  1.927134E-05 -6.093901E-09 -3.234817E-08
       406  27  7.486693E-05  9.000025E+00  4.504728E-08  1.617720E-05 -3.665084E-08 -1.873183E-08
       407   1  8.623199E-05  9.000020E+00  6.127106E-08  1.631974E-05 -3.921677E-08 -2.273903E-08
       407   2  8.747108E-05  9.000019E+00 -1.222263E-08  1.163843E-05 -2.567624E-09 -1.130705E-08
       407   3  8.886188E-05  9.000019E+00  7.519619E-08  7.279867E-06  3.408152E-08 -1.284145E-08
       407   4  8.131120E-05  9.000022E+00  3.536038E-08  1.511060E-05 -4.302058E-08 -4.505604E-09
       407   5  8.295119E-05  9.000021E+00 -8.098719E-08  1.077376E-05  1.646588E-09  4.936701E-09
       407   6  8.475586E-05  9.000021E+00 -6.167388E-09  6.759666E-06  4.631377E-08  1.412628E-09
       407   7  7.685197E-05  9.000024E+00  9.908929E-08  1.387707E-05 -5.239441E-08  1.372782E-08
       407   8  7.890401E-05  9.000024E+00 -3.411880E-08  9.884702E-06  2.907937E-10  2.118045E-08
       407   9  8.113368E-05  9.000023E+00  5.409543E-08  6.215080E-06  5.297598E-08  1.566668E-08
       407  10  8.624125E-05  9.000020E+00  4.045062E-08  1.624859E-05  1.873543E-15  1.579305E-14
       407  11  8.749063E-05  9.000019E+00 -2.274889E-08  1.157815E-05  3.073803E-16 -5.001685E-15
       407  12  8.889173E-05  9.000019E+00  7.496406E-08  7.230467E-06 -1.518271E-15 -2.186287E-14
       407  13  8.133949E-05  9.000022E+00  2.269689E-08  1.504288E-05  2.669364E-15  2.400388E-15
       407  14  8.298978E-05  9.000021E+00 -8.335655E-08  1.071691E-05  5.512660E-15 -6.946152E-15
       407  15  8.480474E-05  9.000021E+00  1.757391E-09  6.713698E-06  4.054352E-15 -1.595422E-14
       407  16  7.689929E-05  9.000024E+00  9.458271E-08  1.381278E-05  6.938734E-15  4.706233E-15
       407  17  7.896162E-05  9.000024E+00 -2.833126E-08  9.831289E-06  4.213885E-15 -1.133030E-15
       407  18  8.120159E-05  9.000023E+00  7.017710E-08  6.172543E-06  4.931758E-15 -9.946945E-15
       407  19  8.623199E-05  9.000020E+00  6.127109E-08  1.631974E-05  3.921676E-08  2.273906E-08
       407  20  8.747108E-05  9.000019E+00 -1.222261E-08  1.163843E-05  2.567616E-09  1.130704E-08
       407  21  8.886188E-05  9.000019E+00  7.519623E-08  7.279867E-06 -3.408153E-08  1.284140E-08
       407  22  8.131120E-05  9.000022E+00  3.536040E-08  1.511060E-05  4.302058E-08  4.505604E-09
       407  23  8.295119E-05  9.000021E+00 -8.098719E-08  1.077376E-05 -1.646590E-09 -4.936725E-09
       407  24  8.475586E-05  9.000021E+00 -6.167397E-09  6.759666E-06 -4.631376E-08 -1.412671E-09
       407  25  7.685197E-05  9.000024E+00  9.908928E-08  1.387707E-05  5.239442E-08 -1.372782E-08
       407  26  7.890401E-05  9.000024E+00 -3.411882E-08  9.884702E-06 -2.907742E-10 -2.118046E-08
       407  27  8.113368E-05  9.000023E+00  5.409538E-08  6.215080E-06 -5.297597E-08 -1.566671E-08
       408   1  8.921189E-05  9.000019E+00  6.950191E-08  4.497918E-06 -3.326583E-08 -1.349103E-08
       408   2  8.910229E-05  9.000019E+00 -1.601349E-08  3.156012E-15  6.811624E-15 -1.014231E-08
       408   3  8.921189E-05  9.000019E+00  6.950189E-08 -4.497918E-06  3.326582E-08 -1.349105E-08
       408   4  8.530084E-05  9.000021E+00  1.680836E-08  4.181697E-06 -4.478967E-08  1.840705E-10
       408   5  8.518790E-05  9.000021E+00 -7.652072E-08 -1.272586E-16 -2.630641E-15  3.532786E-09
       408   6  8.530084E-05  9.000021E+00  1.680833E-08 -4.181697E-06  4.478967E-08  1.840538E-10
       408   7  8.176299E-05  9.000023E+00  6.449278E-08  3.865475E-06 -5.631353E-08  1.385913E-08
       408   8  8.164670E-05  9.000023E+00 -3.665002E-08 -1.567825E-14 -9.047335E-15  1.720786E-08
       408   9  8.176299E-05  9.000023E+00  6.449271E-08 -3.865475E-06  5.631352E-08  1.385914E-08
       408  10  8.921205E-05  9.000019E+00  5.826238E-08  4.486763E-06  1.005930E-15 -1.991569E-14
       408  11  8.910246E-05  9.000019E+00 -2.725299E-08  1.832523E-15  9.122887E-15 -4.863891E-15
       408  12  8.921205E-05  9.000019E+00  5.826237E-08 -4.486763E-06  9.101215E-15 -3.185695E-15
       408  13  8.532053E-05  9.000021E+00  1.393466E-08  4.170542E-06  8.871094E-16 -1.541581E-14
       408  14  8.520759E-05  9.000021E+00 -7.939442E-08  4.886729E-15  2.083341E-15 -3.601434E-15
       408  15  8.532053E-05  9.000021E+00  1.393466E-08 -4.170542E-06  2.096068E-15  4.044007E-15
       408  16  8.180220E-05  9.000023E+00  6.998484E-08  3.854321E-06 -3.192473E-15 -1.064114E-14
       408  17  8.168591E-05  9.000023E+00 -3.115792E-08 -1.018068E-16 -3.894531E-15 -4.762084E-15
       408  18  8.180220E-05  9.000023E+00  6.998486E-08 -3.854321E-06 -2.972729E-15  8.272104E-15
       408  19  8.921189E-05  9.000019E+00  6.950196E-08  4.497918E-06  3.326582E-08  1.349098E-08
       408  20  8.910229E-05  9.000019E+00 -1.601353E-08  1.863065E-14  4.645047E-15  1.014231E-08
       408  21  8.921189E-05  9.000019E+00  6.950187E-08 -4.497918E-06 -3.326582E-08  1.349106E-08
       408  22  8.530084E-05  9.000021E+00  1.680834E-08  4.181697E-06  4.478968E-08 -1.840930E-10
       408  23  8.518790E-05  9.000021E+00 -7.652075E-08  2.168486E-14 -2.763581E-16 -3.532787E-09
       408  24  8.530084E-05  9.000021E+00  1.680832E-08 -4.181697E-06 -4.478968E-08 -1.840333E-10
       408  25  8.176299E-05  9.000023E+00  6.449269E-08  3.865475E-06  5.631352E-08 -1.385916E-08
       408  26  8.164670E-05  9.000023E+00 -3.665007E-08  3.028754E-15 -4.510567E-15 -1.720786E-08
       408  27  8.176299E-05  9.000023E+00  6.449273E-08 -3.865475E-06 -5.631352E-08 -1.385912E-08
       409   1  8.886188E-05  9.000019E+00  7.519624E-08 -7.279867E-06 -3.408154E-08 -1.284149E-08
       409   2  8.747108E-05  9.000019E+00 -1.222261E-08 -1.163843E-05  2.567608E-09 -1.130709E-08
       409   3  8.623199E-05  9.000020E+00  6.127103E-08 -1.631974E-05  3.921675E-08 -2.273909E-08
       409   4  8.475586E-05  9.000021E+00 -6.167418E-09 -6.759666E-06 -4.631377E-08  1.412615E-09
       409   5  8.295119E-05  9.000021E+00 -8.098720E-08 -1.077376E-05 -1.646595E-09  4.936670E-09
       409   6  8.131120E-05  9.000022E+00  3.536035E-08 -1.511060E-05  4.302057E-08 -4.505644E-09
       409   7  8.113368E-05  9.000023E+00  5.409536E-08 -6.215080E-06 -5.297597E-08  1.566669E-08
       409   8  7.890401E-05  9.000024E+00 -3.411882E-08 -9.884702E-06 -2.907707E-10  2.118044E-08
       409   9  7.685197E-05  9.000024E+00  9.908928E-08 -1.387707E-05  5.239442E-08  1.372779E-08
       409  10  8.889173E-05  9.000019E+00  7.496403E-08 -7.230467E-06 -7.891630E-15 -6.015048E-15
       409  11  8.749063E-05  9.000019E+00 -2.274887E-08 -1.157815E-05 -9.317554E-15 -6.125900E-16
       409  12  8.624125E-05  9.000020E+00  4.045062E-08 -1.624859E-05 -9.314662E-15  7.221766E-15
       409  13  8.480474E-05  9.000021E+00  1.757383E-09 -6.713698E-06 -2.717445E-15  2.557113E-15
       409  14  8.298978E-05  9.000021E+00 -8.335655E-08 -1.071691E-05 -3.163472E-15 -4.745898E-15
       409  15  8.133949E-05  9.000022E+00  2.269688E-08 -1.504288E-05 -3.297408E-15  7.125412E-17
       409  16  8.120159E-05  9.000023E+00  7.017708E-08 -6.172543E-06  4.854625E-15  8.757075E-15
       409  17  7.896162E-05  9.000024E+00 -2.833126E-08 -9.831289E-06  4.937035E-15 -5.295705E-15
       409  18  7.689929E-05  9.000024E+00  9.458268E-08 -1.381278E-05  1.463947E-15  1.761719E-16
       409  19  8.886188E-05  9.000019E+00  7.519618E-08 -7.279867E-06  3.408154E-08  1.284149E-08
       409  20  8.747108E-05  9.000019E+00 -1.222264E-08 -1.163843E-05 -2.567629E-09  1.130710E-08
       409  21  8.623199E-05  9.000020E+00  6.127108E-08 -1.631974E-05 -3.921677E-08  2.273910E-08
       409  22  8.475586E-05  9.000021E+00 -6.167420E-09 -6.759666E-06  4.631377E-08 -1.412581E-09
       409  23  8.295119E-05  9.000021E+00 -8.098722E-08 -1.077376E-05  1.646583E-09 -4.936682E-09
       409  24  8.131120E-05  9.000022E+00  3.536037E-08 -1.511060E-05 -4.302058E-08  4.505637E-09
       409  25  8.113368E-05  9.000023E+00  5.409539E-08 -6.215080E-06  5.297597E-08 -1.566665E-08
       409  26  7.890401E-05  9.000024E+00 -3.411886E-08 -9.884702E-06  2.907696E-10 -2.118043E-08
       409  27  7.685197E-05  9.000024E+00  9.908925E-08 -1.387707E-05 -5.239441E-08 -1.372781E-08
       410   1  8.506572E-05  9.000020E+00  7.513918E-08 -1.912215E-05 -2.644312E-08 -2.033252E-08
       410   2  8.214741E-05  9.000021E+00  2.826318E-08 -2.302293E-05 -7.409220E-09 -1.166286E-08
       410   3  7.912509E-05  9.000020E+00  9.937863E-08 -2.745143E-05  1.162467E-08 -3.305116E-08
       410   4  7.956775E-05  9.000022E+00 -4.742190E-08 -1.765443E-05 -3.707445E-08 -8.003446E-10
       410   5  7.591617E-05  9.000022E+00 -8.429701E-08 -2.115189E-05 -1.227902E-08  1.034266E-08
       410   6  7.219062E-05  9.000022E+00  6.695448E-08 -2.517707E-05  1.251639E-08 -8.572281E-09
       410   7  7.486693E-05  9.000025E+00  4.504726E-08 -1.617720E-05 -3.665084E-08  1.873181E-08
       410   8  7.045995E-05  9.000024E+00 -3.341673E-08 -1.927134E-05 -6.093888E-09  3.234816E-08
       410   9  6.600908E-05  9.000024E+00  1.463811E-07 -2.289319E-05  2.446306E-08  1.590658E-08
       410  10  8.514717E-05  9.000020E+00  7.987380E-08 -1.900711E-05  6.215645E-15  6.711973E-15
       410  11  8.220677E-05  9.000021E+00  1.090669E-08 -2.289230E-05  1.378023E-14  1.107211E-15
       410  12  7.916235E-05  9.000020E+00  5.993103E-08 -2.730520E-05  5.932640E-15 -1.379889E-14
       410  13  7.967649E-05  9.000022E+00 -3.099264E-08 -1.754675E-05  5.013572E-15  8.275654E-16
       410  14  7.600281E-05  9.000022E+00 -8.995885E-08 -2.102862E-05  1.006636E-14 -5.265850E-15
       410  15  7.225518E-05  9.000022E+00  3.920155E-08 -2.503820E-05  9.267031E-15 -1.307749E-14
       410  16  7.500295E-05  9.000024E+00  7.317113E-08 -1.607688E-05  7.839692E-16  3.769704E-15
       410  17  7.057389E-05  9.000024E+00 -2.738394E-08 -1.915543E-05  9.386037E-15  4.963678E-16
       410  18  6.610092E-05  9.000024E+00  1.303228E-07 -2.276169E-05  8.505691E-15 -2.061125E-15
       410  19  8.506572E-05  9.000020E+00  7.513925E-08 -1.912215E-05  2.644313E-08  2.033252E-08
       410  20  8.214741E-05  9.000021E+00  2.826317E-08 -2.302293E-05  7.409237E-09  1.166286E-08
       410  21  7.912509E-05  9.000020E+00  9.937859E-08 -2.745143E-05 -1.162466E-08  3.305113E-08
       410  22  7.956775E-05  9.000022E+00 -4.742189E-08 -1.765443E-05  3.707446E-08  8.003528E-10
       410  23  7.591617E-05  9.000022E+00 -8.429702E-08 -2.115189E-05  1.227903E-08 -1.034267E-08
       410  24  7.219062E-05  9.000022E+00  6.695448E-08 -2.517707E-05 -1.251638E-08  8.572253E-09
       410  25  7.486693E-05  9.000025E+00  4.504724E-08 -1.617720E-05  3.665084E-08 -1.873182E-08
       410  26  7.045995E-05  9.000024E+00 -3.341676E-08 -1.927134E-05  6.093903E-09 -3.234818E-08
       410  27  6.600908E-05  9.000024E+00  1.463811E-07 -2.289319E-05 -2.446305E-08 -1.590659E-08
       411   1  7.674814E-05  9.000020E+00  4.013730E-08 -2.979503E-05  1.169612E-08 -3.274707E-08
       411   2  7.190518E-05  9.000018E+00  2.534809E-08 -3.165205E-05  8.225188E-09 -1.728051E-08
       411   3  6.632433E-05  9.000013E+00  5.831174E-08 -3.391512E-05  4.754283E-09 -4.266469E-08
       411   4  6.891230E-05  9.000021E+00 -1.603525E-07 -2.717392E-05  2.022655E-09 -6.829070E-09
       411   5  6.340976E-05  9.000018E+00 -7.609317E-08 -2.862703E-05 -1.496635E-08  1.110966E-08
       411   6  5.721017E-05  9.000013E+00  1.512373E-07 -3.048619E-05 -3.195531E-08 -1.180235E-08
       411   7  6.242601E-05  9.000023E+00 -3.285786E-08 -2.462396E-05  1.698217E-08  1.908891E-08
       411   8  5.621462E-05  9.000019E+00  3.549599E-08 -2.567316E-05 -1.352490E-08  3.949983E-08
       411   9  4.934703E-05  9.000014E+00  3.422395E-07 -2.712841E-05 -4.403196E-08  1.905998E-08
       411  10  7.701154E-05  9.000020E+00  8.517748E-08 -2.959658E-05 -2.563463E-15 -2.044060E-14
       411  11  7.211594E-05  9.000018E+00  1.774539E-08 -3.144842E-05 -2.904040E-15 -5.157329E-15
       411  12  6.648244E-05  9.000013E+00 -1.933998E-09 -3.370630E-05 -1.134541E-15  1.100530E-14
       411  13  6.918477E-05  9.000021E+00 -1.114269E-07 -2.699302E-05  3.058295E-15 -1.428635E-14
       411  14  6.362958E-05  9.000018E+00 -7.981058E-08 -2.844095E-05 -1.509673E-15 -6.083711E-15
       411  15  5.737735E-05  9.000013E+00  9.487692E-08 -3.029492E-05 -1.296984E-15  7.015683E-15
       411  16  6.270754E-05  9.000023E+00  1.995304E-08 -2.446061E-05  5.970032E-15 -5.781317E-16
       411  17  5.644351E-05  9.000019E+00  3.566393E-08 -2.550463E-05  5.041051E-15 -4.742106E-16
       411  18  4.952328E-05  9.000013E+00  2.897645E-07 -2.695469E-05  6.333195E-15  4.494180E-15
       411  19  7.674814E-05  9.000020E+00  4.013726E-08 -2.979503E-05 -1.169611E-08  3.274703E-08
       411  20  7.190518E-05  9.000018E+00  2.534809E-08 -3.165205E-05 -8.225195E-09  1.728049E-08
       411  21  6.632433E-05  9.000013E+00  5.831177E-08 -3.391512E-05 -4.754283E-09  4.266470E-08
       411  22  6.891230E-05  9.000021E+00 -1.603525E-07 -2.717392E-05 -2.022647E-09  6.829055E-09
       411  23  6.340976E-05  9.000018E+00 -7.609319E-08 -2.862703E-05  1.496634E-08 -1.110968E-08
       411  24  5.721017E-05  9.000013E+00  1.512373E-07 -3.048619E-05  3.195533E-08  1.180235E-08
       411  25  6.242601E-05  9.000023E+00 -3.285788E-08 -2.462396E-05 -1.698216E-08 -1.908891E-08
       411  26  5.621462E-05  9.000019E+00  3.549596E-08 -2.567316E-05  1.352491E-08 -3.949983E-08
       411  27  4.934703E-05  9.000014E+00  3.422394E-07 -2.712841E-05  4.403198E-08 -1.905998E-08
       412   1  6.183882E-05  9.000009E+00 -3.364236E-07 -3.377475E-05  1.368781E-07 -5.324890E-08
       412   2  5.671059E-05  8.999999E+00  4.449162E-07 -3.012004E-05 -9.231755E-08 -1.535539E-08
       412   3  4.917121E-05  8.999982E+00  7.958712E-07 -2.626050E-05 -3.215132E-07  5.741489E-08
       412   4  5.207207E-05  9.000008E+00 -3.884004E-07 -3.005960E-05  1.302248E-07 -2.211482E-08
       412   5  4.656196E-05  8.999997E+00  1.398111E-07 -2.648428E-05 -8.496633E-08  1.424033E-08
       412   6  3.860582E-05  8.999977E+00  1.562588E-07 -2.270414E-05 -3.001574E-07  8.547222E-08
       412   7  4.418313E-05  9.000008E+00 -1.238571E-07 -2.667463E-05  1.442087E-07  9.019233E-09
       412   8  3.824986E-05  8.999995E+00  5.491891E-08 -2.317870E-05 -5.697781E-08  4.383603E-08
       412   9  2.983570E-05  8.999973E+00 -3.594480E-07 -1.947795E-05 -2.581643E-07  1.135296E-07
       412  10  6.225956E-05  9.000009E+00 -3.008812E-07 -3.356361E-05  5.540101E-15  1.234193E-14
       412  11  5.708316E-05  8.999999E+00  4.322940E-07 -2.991147E-05  3.794230E-15  9.894141E-15
       412  12  4.949562E-05  8.999981E+00  7.350844E-07 -2.605451E-05  6.039412E-15  2.751643E-15
       412  13  5.248830E-05  9.000008E+00 -3.547896E-07 -2.986452E-05  3.288320E-15  9.537111E-15
       412  14  4.693002E-05  8.999996E+00  1.252574E-07 -2.629178E-05 -1.215421E-15  4.080989E-15
       412  15  3.892572E-05  8.999977E+00  9.354052E-08 -2.251420E-05 -2.064435E-15 -8.306644E-16
       412  16  4.459485E-05  9.000008E+00 -9.217781E-08 -2.649561E-05  2.661159E-15  9.603294E-15
       412  17  3.861342E-05  8.999994E+00  3.843363E-08 -2.300225E-05 -1.961348E-15  5.720033E-15
       412  18  3.015109E-05  8.999973E+00 -4.240979E-07 -1.930407E-05 -3.239817E-15  5.199568E-15
       412  19  6.183882E-05  9.000009E+00 -3.364235E-07 -3.377475E-05 -1.368781E-07  5.324892E-08
       412  20  5.671059E-05  8.999999E+00  4.449162E-07 -3.012004E-05  9.231757E-08  1.535540E-08
       412  21  4.917121E-05  8.999982E+00  7.958712E-07 -2.626050E-05  3.215133E-07 -5.741489E-08
       412  22  5.207207E-05  9.000008E+00 -3.884004E-07 -3.005960E-05 -1.302248E-07  2.211484E-08
       412  23  4.656196E-05  8.999997E+00  1.398111E-07 -2.648428E-05  8.496633E-08 -1.424032E-08
       412  24  3.860582E-05  8.999977E+00  1.562588E-07 -2.270414E-05  3.001574E-07 -8.547223E-08
       412  25  4.418313E-05  9.000008E+00 -1.238571E-07 -2.667463E-05 -1.442087E-07 -9.019223E-09
       412  26  3.824986E-05  8.999995E+00  5.491888E-08 -2.317870E-05  5.697779E-08 -4.383602E-08
       412  27  2.983570E-05  8.999973E+00 -3.594480E-07 -1.947795E-05  2.581643E-07 -1.135295E-07
       413   1  4.234659E-05  8.999966E+00 -9.202941E-07 -2.095081E-05  3.831025E-07 -4.693493E-09
       413   2  4.273338E-05  8.999933E+00 -3.520859E-07 -9.837713E-06  3.130858E-08 -1.112744E-07
       413   3  3.751471E-05  8.999883E+00 -1.845125E-06  1.286606E-06 -3.204854E-07  9.529435E-08
       413   4  3.340612E-05  8.999962E+00 -6.820486E-07 -1.813688E-05  3.374851E-07  5.677526E-09
       413   5  3.429736E-05  8.999930E+00  5.397149E-07 -9.072896E-06  5.119401E-08 -1.601439E-07
       413   6  2.926998E-05  8.999880E+00 -1.030451E-06  2.307058E-09 -2.350971E-07 -1.281565E-08
       413   7  2.534857E-05  8.999958E+00 -7.350598E-07 -1.520142E-05  2.930245E-07  1.604852E-08
       413   8  2.674194E-05  8.999927E+00  1.134861E-06 -8.186552E-06  7.223617E-08 -2.090134E-07
       413   9  2.190356E-05  8.999878E+00 -5.178308E-07 -1.160465E-06 -1.485521E-07 -1.209257E-07
       413  10  4.324543E-05  8.999966E+00 -7.544173E-07 -2.087567E-05  7.539481E-15  1.988071E-15
       413  11  4.356297E-05  8.999932E+00 -2.554574E-07 -9.830868E-06  7.606740E-15 -3.902165E-15
       413  12  3.827505E-05  8.999882E+00 -1.817745E-06  1.225147E-06  1.591670E-14 -2.349698E-14
       413  13  3.418543E-05  8.999962E+00 -5.673998E-07 -1.808482E-05  9.291103E-17 -1.860242E-15
       413  14  3.500742E-05  8.999929E+00  5.851154E-07 -9.089134E-06  2.510826E-15 -4.074903E-15
       413  15  2.991080E-05  8.999879E+00 -1.054299E-06 -8.223482E-08  8.567092E-15 -1.046216E-14
       413  16  2.600835E-05  8.999958E+00 -6.716390E-07 -1.517244E-05 -4.623710E-15  3.932490E-15
       413  17  2.733247E-05  8.999926E+00  1.129033E-06 -8.225873E-06 -9.544363E-15 -5.632844E-15
       413  18  2.242484E-05  8.999877E+00 -5.929065E-07 -1.268089E-06 -9.903538E-15 -5.854417E-15
       413  19  4.234659E-05  8.999966E+00 -9.202941E-07 -2.095081E-05 -3.831025E-07  4.693508E-09
       413  20  4.273338E-05  8.999933E+00 -3.520860E-07 -9.837713E-06 -3.130857E-08  1.112744E-07
       413  21  3.751471E-05  8.999883E+00 -1.845125E-06  1.286606E-06  3.204854E-07 -9.529439E-08
       413  22  3.340612E-05  8.999962E+00 -6.820486E-07 -1.813688E-05 -3.374851E-07 -5.677515E-09
       413  23  3.429736E-05  8.999930E+00  5.397149E-07 -9.072896E-06 -5.119403E-08  1.601439E-07
       413  24  2.926998E-05  8.999880E+00 -1.030451E-06  2.307004E-09  2.350971E-07  1.281563E-08
       413  25  2.534857E-05  8.999958E+00 -7.350598E-07 -1.520142E-05 -2.930245E-07 -1.604851E-08
       413  26  2.674194E-05  8.999927E+00  1.134861E-06 -8.186552E-06 -7.223620E-08  2.090134E-07
       413  27  2.190356E-05  8.999878E+00 -5.178308E-07 -1.160465E-06  1.485521E-07  1.209257E-07
       414   1  4.711708E-05  8.999850E+00  1.820874E-06  6.669022E-06 -5.391750E-08  2.240900E-07
       414   2  4.741824E-05  8.999782E+00  1.452711E-07 -7.106601E-07  9.584858E-07  1.105609E-07
       414   3  4.939384E-05  8.999717E+00  2.764815E-07 -9.641086E-06  1.970889E-06 -2.313634E-07
       414   4  3.529627E-05  8.999847E+00  9.650432E-07  3.827774E-06  2.457266E-08  1.395381E-07
       414   5  3.477061E-05  8.999783E+00 -7.138184E-07 -1.229132E-06  4.572994E-07  1.662065E-07
       414   6  3.614781E-05  8.999723E+00 -5.294517E-08 -7.836782E-06  8.900262E-07 -3.552024E-08
       414   7  2.629578E-05  8.999845E+00  6.975771E-07  1.797322E-06  4.947723E-08  5.498613E-08
       414   8  2.505049E-05  8.999785E+00 -7.344775E-07 -9.368071E-07 -9.747256E-08  2.218522E-07
       414   9  2.593644E-05  8.999730E+00  7.061249E-07 -5.221680E-06 -2.444224E-07  1.603230E-07
       414  10  4.804949E-05  8.999849E+00  1.956758E-06  6.213350E-06  1.099858E-14 -2.724182E-14
       414  11  4.862894E-05  8.999782E+00  5.594456E-07 -1.515441E-06 -4.997188E-15 -6.606275E-15
       414  12  5.088284E-05  8.999718E+00  9.689458E-07 -1.079498E-05 -5.763785E-15 -7.285412E-15
       414  13  3.561774E-05  8.999846E+00  8.390959E-07  3.464865E-06  3.488884E-16 -1.069323E-14
       414  14  3.537038E-05  8.999783E+00 -5.614759E-07 -1.941150E-06 -3.786370E-15 -5.598064E-15
       414  15  3.702586E-05  8.999724E+00  3.776873E-07 -8.897909E-06 -9.910121E-16 -1.777012E-14
       414  16  2.600631E-05  8.999844E+00  3.097978E-07  1.527177E-06 -9.620380E-15  3.583144E-16
       414  17  2.503931E-05  8.999785E+00 -8.439669E-07 -1.556062E-06 -8.186630E-15  8.256136E-16
       414  18  2.620355E-05  8.999730E+00  8.749255E-07 -6.190044E-06 -1.269621E-14 -1.430536E-14
       414  19  4.711708E-05  8.999850E+00  1.820874E-06  6.669022E-06  5.391752E-08 -2.240901E-07
       414  20  4.741824E-05  8.999782E+00  1.452711E-07 -7.106601E-07 -9.584858E-07 -1.105609E-07
       414  21  4.939384E-05  8.999717E+00  2.764814E-07 -9.641086E-06 -1.970889E-06  2.313634E-07
       414  22  3.529627E-05  8.999847E+00  9.650432E-07  3.827774E-06 -2.457267E-08 -1.395381E-07
       414  23  3.477061E-05  8.999783E+00 -7.138184E-07 -1.229132E-06 -4.572994E-07 -1.662065E-07
       414  24  3.614781E-05  8.999723E+00 -5.294520E-08 -7.836782E-06 -8.900262E-07  3.552019E-08
       414  25  2.629578E-05  8.999845E+00  6.975771E-07  1.797322E-06 -4.947725E-08 -5.498612E-08
       414  26  2.505049E-05  8.999785E+00 -7.344775E-07 -9.368072E-07  9.747257E-08 -2.218522E-07
       414  27  2.593644E-05  8.999730E+00  7.061249E-07 -5.221681E-06  2.444224E-07 -1.603230E-07
       415   1  4.318040E-05  8.999689E+00 -1.246257E-07 -2.532589E-05  2.838025E-06 -4.362913E-07
       415   2  2.586852E-05  8.999648E+00  8.303563E-07 -2.207863E-05  2.682389E-07 -3.266933E-07
       415   3  2.814958E-06  8.999588E+00  2.375626E-07 -1.306910E-05 -2.301547E-06  2.855838E-07
       415   4  2.879223E-05  8.999693E+00 -9.444402E-07 -1.701890E-05  1.383901E-06 -2.198516E-07
       415   5  1.724496E-05  8.999645E+00  7.929985E-07 -1.467569E-05  3.387807E-08 -1.796715E-07
       415   6 -5.466627E-07  8.999578E+00 -1.902567E-07 -6.570214E-06 -1.316145E-06  3.631878E-07
       415   7  1.782809E-05  8.999698E+00 -6.359087E-07 -1.034673E-05  9.794757E-08 -3.411875E-09
       415   8  1.170910E-05  8.999643E+00  1.099191E-06 -8.907573E-06 -3.231225E-08 -3.264968E-08
       415   9 -1.156929E-06  8.999569E+00 -1.059321E-06 -1.706144E-06 -1.625721E-07  4.407917E-07
       415  10  4.191496E-05  8.999689E+00 -6.422631E-07 -2.577925E-05 -2.020472E-15 -1.479415E-14
       415  11  2.414660E-05  8.999646E+00 -1.437597E-07 -2.180568E-05 -8.275583E-15 -1.177039E-14
       415  12  6.365598E-07  8.999586E+00 -1.193032E-06 -1.206983E-05 -2.232260E-14  5.036574E-15
       415  13  2.879784E-05  8.999693E+00 -9.173394E-07 -1.762442E-05  1.815812E-15 -2.635477E-14
       415  14  1.679410E-05  8.999644E+00  3.636206E-07 -1.455490E-05 -8.363557E-15 -1.283976E-14
       415  15 -1.454005E-06  8.999576E+00 -1.076113E-06 -5.723101E-06 -1.993074E-14  5.175386E-15
       415  16  1.910477E-05  8.999699E+00 -6.406955E-08 -1.110441E-05 -1.648100E-14 -1.468238E-14
       415  17  1.252930E-05  8.999643E+00  1.214551E-06 -8.938937E-06 -1.629678E-14 -1.997028E-15
       415  18 -7.932153E-07  8.999568E+00 -1.400440E-06 -1.011190E-06 -1.140926E-14 -1.576110E-15
       415  19  4.318040E-05  8.999689E+00 -1.246257E-07 -2.532589E-05 -2.838025E-06  4.362913E-07
       415  20  2.586852E-05  8.999648E+00  8.303564E-07 -2.207863E-05 -2.682390E-07  3.266933E-07
       415  21  2.814958E-06  8.999588E+00  2.375626E-07 -1.306910E-05  2.301547E-06 -2.855838E-07
       415  22  2.879223E-05  8.999693E+00 -9.444402E-07 -1.701890E-05 -1.383901E-06  2.198515E-07
       415  23  1.724496E-05  8.999645E+00  7.929985E-07 -1.467569E-05 -3.387811E-08  1.796715E-07
       415  24 -5.466627E-07  8.999578E+00 -1.902567E-07 -6.570214E-06  1.316145E-06 -3.631878E-07
       415  25  1.782809E-05  8.999698E+00 -6.359087E-07 -1.034673E-05 -9.794758E-08  3.411839E-09
       415  26  1.170910E-05  8.999643E+00  1.099191E-06 -8.907573E-06  3.231223E-08  3.264967E-08
       415  27 -1.156929E-06  8.999569E+00 -1.059321E-06 -1.706144E-06  1.625721E-07 -4.407917E-07
       501   1  4.660721E-07  8.999571E+00  4.199898E-07  1.091651E-06 -1.576849E-07  4.123772E-07
       501   2  7.899343E-06  8.999639E+00 -2.962157E-07  5.073845E-06  1.770978E-08 -3.067010E-08
       501   3  1.223650E-05  8.999697E+00 -1.582942E-06  7.364419E-06  1.931045E-07 -1.314496E-07
       501   4 -1.108734E-06  8.999569E+00 -1.023312E-07 -3.910048E-07  3.229490E-09  3.156081E-07
       501   5  4.972133E-06  8.999638E+00  2.311662E-07  2.774411E-06  9.240383E-09 -5.360559E-08
       501   6  7.614614E-06  8.999698E+00 -8.044820E-07  4.248207E-06  1.525127E-08 -8.055147E-08
       501   7 -1.465426E-06  8.999567E+00 -6.045869E-07 -1.515305E-06  1.631346E-07  2.188390E-07
       501   8  3.265055E-06  8.999638E+00  7.833238E-07  8.333328E-07 -2.383748E-10 -7.654105E-08
       501   9  4.214883E-06  8.999699E+00  3.463984E-09  1.490350E-06 -1.636113E-07 -2.965333E-08
       501  10  1.533995E-06  8.999570E+00  6.460432E-07  1.509639E-06 -1.486474E-14  1.785150E-14
       501  11  9.052600E-06  8.999638E+00  1.517163E-08  5.236445E-06 -9.171202E-15  3.658811E-15
       501  12  1.347509E-05  8.999697E+00 -1.186221E-06  7.271631E-06 -2.471153E-15 -6.162327E-15
       501  13 -4.877396E-07  8.999568E+00 -6.781906E-08  5.542865E-08 -1.291964E-14  1.961238E-14
       501  14  5.678460E-06  8.999638E+00  3.510123E-07  2.965456E-06 -8.854135E-15  5.043262E-15
       501  15  8.406276E-06  8.999698E+00 -5.993021E-07  4.183864E-06  2.253350E-16 -5.079389E-15
       501  16 -1.291361E-06  8.999566E+00 -7.616159E-07 -1.040427E-06 -7.380976E-15  7.920308E-15
       501  17  3.524453E-06  8.999638E+00  7.116286E-07  1.052823E-06 -6.620011E-15 -2.657835E-16
       501  18  4.559615E-06  8.999699E+00  1.710265E-08  1.454452E-06 -8.968332E-15 -8.769182E-15
       501  19  4.660721E-07  8.999571E+00  4.199898E-07  1.091651E-06  1.576849E-07 -4.123772E-07
       501  20  7.899343E-06  8.999639E+00 -2.962156E-07  5.073845E-06 -1.770981E-08  3.067011E-08
       501  21  1.223650E-05  8.999697E+00 -1.582942E-06  7.364419E-06 -1.931045E-07  1.314496E-07
       501  22 -1.108733E-06  8.999569E+00 -1.023312E-07 -3.910048E-07 -3.229524E-09 -3.156081E-07
       501  23  4.972133E-06  8.999638E+00  2.311662E-07  2.774411E-06 -9.240390E-09  5.360558E-08
       501  24  7.614614E-06  8.999698E+00 -8.044820E-07  4.248207E-06 -1.525128E-08  8.055147E-08
       501  25 -1.465426E-06  8.999567E+00 -6.045869E-07 -1.515305E-06 -1.631346E-07 -2.188390E-07
       501  26  3.265055E-06  8.999638E+00  7.833238E-07  8.333328E-07  2.383613E-10  7.654104E-08
       501  27  4.214883E-06  8.999699E+00  3.463947E-09  1.490350E-06  1.636113E-07  2.965333E-08
       502   1  2.085851E-05  8.999732E+00  9.969590E-07  4.910877E-06  5.188463E-07 -5.375438E-08
       502   2  2.148608E-05  8.999790E+00  6.186811E-07  1.839100E-06  2.337215E-07  2.179976E-08
       502   3  2.201765E-05  8.999846E+00  1.017295E-06 -9.574602E-07 -5.140327E-08 -1.309042E-08
       502   4  1.260423E-05  8.999732E+00  3.027757E-07  3.185337E-06  2.932000E-07  1.446463E-08
       502   5  1.333063E-05  8.999789E+00 -1.648893E-07  1.338694E-06  1.129146E-07  7.570811E-08
       502   6  1.407148E-05  8.999844E+00  4.020404E-07 -2.327322E-07 -6.737079E-08  2.650731E-08
       502   7  6.672595E-06  8.999733E+00  1.102622E-07  1.310448E-06  6.807433E-08  8.268363E-08
       502   8  7.496788E-06  8.999789E+00 -4.492201E-07  6.889386E-07 -7.371621E-09  1.296165E-07
       502   9  8.445874E-06  8.999844E+00  2.835959E-07  3.426468E-07 -8.281757E-08  6.610503E-08
       502  10  2.069903E-05  8.999732E+00  8.058251E-07  4.798398E-06 -4.720263E-15 -5.088284E-15
       502  11  2.130933E-05  8.999789E+00  4.102761E-07  1.846667E-06 -4.967259E-15  5.222464E-15
       502  12  2.182363E-05  8.999845E+00  7.916185E-07 -8.298464E-07 -1.003508E-14  1.517068E-14
       502  13  1.265483E-05  8.999732E+00  2.016764E-07  3.067101E-06 -2.991602E-15 -1.113009E-15
       502  14  1.336396E-05  8.999788E+00 -2.832597E-07  1.340504E-06 -1.225757E-14  6.352421E-15
       502  15  1.408754E-05  8.999844E+00  2.663990E-07 -1.108755E-07 -1.739212E-14  1.051305E-14
       502  16  6.933278E-06  8.999733E+00  9.919753E-08  1.186455E-06 -1.045421E-14 -7.282173E-15
       502  17  7.740200E-06  8.999788E+00 -4.775558E-07  6.849921E-07 -1.411173E-14  3.333988E-15
       502  18  8.672016E-06  8.999843E+00  2.379891E-07  4.587465E-07 -1.331386E-14  6.938994E-15
       502  19  2.085851E-05  8.999732E+00  9.969590E-07  4.910877E-06 -5.188463E-07  5.375438E-08
       502  20  2.148608E-05  8.999790E+00  6.186811E-07  1.839100E-06 -2.337215E-07 -2.179974E-08
       502  21  2.201765E-05  8.999846E+00  1.017295E-06 -9.574602E-07  5.140325E-08  1.309046E-08
       502  22  1.260423E-05  8.999732E+00  3.027757E-07  3.185337E-06 -2.932000E-07 -1.446463E-08
       502  23  1.333063E-05  8.999789E+00 -1.648894E-07  1.338694E-06 -1.129146E-07 -7.570811E-08
       502  24  1.407148E-05  8.999844E+00  4.020404E-07 -2.327322E-07  6.737075E-08 -2.650728E-08
       502  25  6.672595E-06  8.999733E+00  1.102621E-07  1.310448E-06 -6.807435E-08 -8.268362E-08
       502  26  7.496788E-06  8.999789E+00 -4.492201E-07  6.889386E-07  7.371594E-09 -1.296165E-07
       502  27  8.445874E-06  8.999844E+00  2.835959E-07  3.426468E-07  8.281753E-08 -6.610501E-08
       503   1  1.729064E-05  8.999875E+00 -1.095757E-06  1.183367E-06  1.300038E-07 -7.367778E-08
       503   2  2.136925E-05  8.999922E+00 -1.515951E-07  7.337075E-06 -7.445799E-08 -8.782954E-08
       503   3  2.153963E-05  8.999957E+00 -5.808172E-07  1.376400E-05 -2.789198E-07  3.415328E-08
       503   4  1.166469E-05  8.999874E+00 -6.181123E-07  1.516794E-06  1.572304E-07 -4.506003E-08
       503   5  1.585519E-05  8.999920E+00  3.307662E-07  6.380816E-06 -5.662825E-08 -8.263382E-08
       503   6  1.600134E-05  8.999954E+00 -4.113870E-07  1.151806E-05 -2.704869E-07  1.592700E-08
       503   7  6.905650E-06  8.999873E+00 -2.735446E-07  1.686631E-06  1.901521E-07 -1.644230E-08
       503   8  1.119665E-05  8.999918E+00  6.534734E-07  5.260967E-06 -3.310350E-08 -7.743808E-08
       503   9  1.130718E-05  8.999951E+00 -4.281875E-07  9.108523E-06 -2.563591E-07 -2.299279E-09
       503  10  1.800406E-05  8.999875E+00 -9.419168E-07  1.319538E-06 -5.750252E-15  1.247638E-14
       503  11  2.204350E-05  8.999921E+00 -3.691795E-08  7.415148E-06 -6.645588E-15  6.903493E-15
       503  12  2.217472E-05  8.999956E+00 -5.053036E-07  1.378398E-05 -1.161105E-14  1.471204E-14
       503  13  1.227644E-05  8.999874E+00 -5.078453E-07  1.639911E-06 -1.817135E-14  1.240491E-14
       503  14  1.642777E-05  8.999919E+00  4.018698E-07  6.445835E-06 -1.122609E-14  2.535947E-15
       503  15  1.653476E-05  8.999953E+00 -3.794469E-07  1.152498E-05 -7.065532E-15  9.635682E-15
       503  16  7.415721E-06  8.999873E+00 -2.068512E-07  1.796694E-06 -1.339330E-14  2.748780E-15
       503  17  1.166756E-05  8.999918E+00  6.810034E-07  5.312932E-06 -1.692517E-14 -2.824109E-15
       503  18  1.173892E-05  8.999951E+00 -4.398211E-07  9.102390E-06 -6.057730E-15  4.266067E-15
       503  19  1.729064E-05  8.999875E+00 -1.095757E-06  1.183367E-06 -1.300038E-07  7.367781E-08
       503  20  2.136925E-05  8.999922E+00 -1.515951E-07  7.337074E-06  7.445798E-08  8.782955E-08
       503  21  2.153963E-05  8.999957E+00 -5.808173E-07  1.376400E-05  2.789198E-07 -3.415324E-08
       503  22  1.166469E-05  8.999874E+00 -6.181123E-07  1.516794E-06 -1.572305E-07  4.506006E-08
       503  23  1.585519E-05  8.999920E+00  3.307662E-07  6.380816E-06  5.662823E-08  8.263381E-08
       503  24  1.600134E-05  8.999954E+00 -4.113870E-07  1.151806E-05  2.704869E-07 -1.592698E-08
       503  25  6.905650E-06  8.999873E+00 -2.735446E-07  1.686631E-06 -1.901521E-07  1.644232E-08
       503  26  1.119665E-05  8.999918E+00  6.534735E-07  5.260967E-06  3.310347E-08  7.743806E-08
       503  27  1.130718E-05  8.999951E+00 -4.281875E-07  9.108523E-06  2.563591E-07  2.299303E-09
       504   1  2.642205E-05  8.999973E+00  3.536264E-07  1.781258E-05  2.435566E-07  7.166912E-08
       504   2  3.441968E-05  8.999994E+00  3.617491E-07  2.116691E-05  4.720174E-08  6.627525E-09
       504   3  3.983871E-05  9.000007E+00 -3.440693E-07  2.431276E-05 -1.491531E-07 -3.379296E-08
       504   4  1.991773E-05  8.999970E+00  1.856886E-08  1.465738E-05  2.403917E-07  5.240350E-08
       504   5  2.805466E-05  8.999992E+00  2.151136E-07  1.760407E-05  4.663647E-08  7.212178E-09
       504   6  3.358837E-05  9.000007E+00 -3.597320E-07  2.034226E-05 -1.471188E-07 -1.335801E-08
       504   7  1.473647E-05  8.999968E+00 -2.895608E-07  1.171007E-05  2.243998E-07  3.313786E-08
       504   8  2.303835E-05  8.999991E+00  1.552656E-07  1.424911E-05  3.324412E-08  7.796857E-09
       504   9  2.871238E-05  9.000006E+00 -2.287473E-07  1.657966E-05 -1.579115E-07  7.076929E-09
       504  10  2.674143E-05  8.999973E+00  2.958385E-07  1.769599E-05 -1.198503E-14  1.066792E-14
       504  11  3.479026E-05  8.999994E+00  3.551536E-07  2.104303E-05 -2.907115E-16 -1.546464E-15
       504  12  4.026047E-05  9.000007E+00 -2.994723E-07  2.418159E-05  3.515514E-16  1.321171E-14
       504  13  2.022437E-05  8.999970E+00 -4.468154E-08  1.455785E-05 -1.569971E-15  1.059406E-14
       504  14  2.841249E-05  8.999992E+00  2.030557E-07  1.749725E-05 -5.355716E-16 -1.101210E-15
       504  15  3.399739E-05  9.000006E+00 -3.205974E-07  2.022816E-05  1.286473E-15  1.029877E-14
       504  16  1.503036E-05  8.999967E+00 -3.582736E-07  1.162760E-05 -5.068341E-15  2.772832E-15
       504  17  2.338344E-05  8.999990E+00  1.377454E-07  1.415935E-05 -5.667198E-15 -2.824105E-15
       504  18  2.910866E-05  9.000006E+00 -1.950751E-07  1.648262E-05 -2.757034E-15  3.045704E-15
       504  19  2.642205E-05  8.999973E+00  3.536264E-07  1.781258E-05 -2.435566E-07 -7.166909E-08
       504  20  3.441968E-05  8.999994E+00  3.617491E-07  2.116691E-05 -4.720174E-08 -6.627527E-09
       504  21  3.983871E-05  9.000007E+00 -3.440694E-07  2.431276E-05  1.491531E-07  3.379300E-08
       504  22  1.991773E-05  8.999970E+00  1.856886E-08  1.465738E-05 -2.403917E-07 -5.240347E-08
       504  23  2.805466E-05  8.999992E+00  2.151136E-07  1.760407E-05 -4.663647E-08 -7.212195E-09
       504  24  3.358837E-05  9.000007E+00 -3.597320E-07  2.034226E-05  1.471188E-07  1.335804E-08
       504  25  1.473647E-05  8.999968E+00 -2.895608E-07  1.171007E-05 -2.243998E-07 -3.313784E-08
       504  26  2.303835E-05  8.999991E+00  1.552657E-07  1.424911E-05 -3.324413E-08 -7.796870E-09
       504  27  2.871238E-05  9.000006E+00 -2.287473E-07  1.657966E-05  1.579115E-07 -7.076902E-09
       505   1  4.496345E-05  9.000013E+00  5.123741E-08  2.480908E-05  5.199996E-08 -3.237228E-08
       505   2  5.247376E-05  9.000020E+00  6.923181E-08  2.371440E-05  1.489775E-08 -1.990859E-08
       505   3  5.894963E-05  9.000024E+00 -2.659870E-08  2.273415E-05 -2.220446E-08 -3.369772E-08
       505   4  3.894994E-05  9.000013E+00  7.768855E-08  2.088911E-05  7.274995E-08 -6.082127E-09
       505   5  4.669919E-05  9.000020E+00 -2.525811E-08  2.003882E-05  2.650160E-08  6.652604E-09
       505   6  5.344025E-05  9.000024E+00 -1.807730E-07  1.930296E-05 -1.974674E-08 -6.865467E-09
       505   7  3.415496E-05  9.000013E+00  2.161837E-07  1.704340E-05  7.730181E-08  2.020801E-08
       505   8  4.217555E-05  9.000021E+00  6.788729E-08  1.643751E-05  2.190731E-08  3.321382E-08
       505   9  4.921420E-05  9.000025E+00 -7.172058E-08  1.594604E-05 -3.348719E-08  1.996678E-08
       505  10  4.515518E-05  9.000013E+00  1.187042E-08  2.468025E-05 -1.255505E-15  1.380638E-14
       505  11  5.270224E-05  9.000020E+00  6.661554E-08  2.358856E-05 -7.928172E-16  3.171370E-15
       505  12  5.921486E-05  9.000023E+00  7.535781E-09  2.261129E-05 -4.901005E-15  1.332414E-14
       505  13  3.914689E-05  9.000012E+00  4.056044E-08  2.077253E-05  7.281194E-16  1.329739E-14
       505  14  4.693289E-05  9.000020E+00 -2.563547E-08  1.992523E-05  1.457454E-16 -9.925813E-16
       505  15  5.371071E-05  9.000024E+00 -1.443996E-07  1.919235E-05 -3.439198E-16  6.850388E-15
       505  16  3.435714E-05  9.000013E+00  1.812945E-07  1.693907E-05 -1.374854E-15  4.485987E-15
       505  17  4.241448E-05  9.000020E+00  6.974887E-08  1.633616E-05 -6.255326E-16 -2.178557E-15
       505  18  4.948988E-05  9.000025E+00 -3.310828E-08  1.584768E-05  1.587323E-15  4.252535E-15
       505  19  4.496345E-05  9.000013E+00  5.123737E-08  2.480908E-05 -5.199996E-08  3.237231E-08
       505  20  5.247376E-05  9.000020E+00  6.923180E-08  2.371440E-05 -1.489775E-08  1.990859E-08
       505  21  5.894963E-05  9.000024E+00 -2.659872E-08  2.273415E-05  2.220445E-08  3.369776E-08
       505  22  3.894994E-05  9.000013E+00  7.768852E-08  2.088911E-05 -7.274995E-08  6.082159E-09
       505  23  4.669919E-05  9.000020E+00 -2.525812E-08  2.003882E-05 -2.650160E-08 -6.652615E-09
       505  24  5.344025E-05  9.000024E+00 -1.807730E-07  1.930296E-05  1.974675E-08  6.865493E-09
       505  25  3.415496E-05  9.000013E+00  2.161837E-07  1.704340E-05 -7.730181E-08 -2.020798E-08
       505  26  4.217555E-05  9.000021E+00  6.788733E-08  1.643751E-05 -2.190731E-08 -3.321383E-08
       505  27  4.921420E-05  9.000025E+00 -7.172058E-08  1.594604E-05  3.348718E-08 -1.996676E-08
       506   1  6.270035E-05  9.000025E+00  1.256270E-07  2.116813E-05 -2.569468E-08 -3.370775E-08
       506   2  6.758326E-05  9.000025E+00  2.192043E-08  1.795687E-05  6.378065E-09 -1.837112E-08
       506   3  7.229661E-05  9.000026E+00  7.171135E-08  1.503574E-05  3.845081E-08 -2.683658E-08
       506   4  5.771401E-05  9.000026E+00  7.547772E-08  1.804791E-05 -1.797547E-08 -6.937809E-09
       506   5  6.299387E-05  9.000027E+00 -1.006260E-07  1.531876E-05  1.354475E-08  7.913651E-09
       506   6  6.812797E-05  9.000027E+00 -6.769398E-08  1.287972E-05  4.506496E-08 -1.036961E-09
       506   7  5.367690E-05  9.000027E+00  1.755707E-07  1.493557E-05 -2.130343E-08  1.983213E-08
       506   8  5.937579E-05  9.000028E+00 -2.137678E-08  1.268852E-05  9.664265E-09  3.419844E-08
       506   9  6.495273E-05  9.000029E+00  4.624983E-08  1.073159E-05  4.063196E-08  2.476265E-08
       506  10  6.278003E-05  9.000024E+00  9.039199E-08  2.107026E-05 -2.160650E-15  1.366132E-14
       506  11  6.768725E-05  9.000025E+00  1.099572E-08  1.786751E-05  1.770744E-15  2.806120E-15
       506  12  7.242491E-05  9.000026E+00  8.509699E-08  1.495488E-05  5.798922E-15  2.761629E-15
       506  13  5.780859E-05  9.000025E+00  4.662624E-08  1.795814E-05  7.518426E-16  1.175738E-14
       506  14  6.311275E-05  9.000026E+00 -1.051672E-07  1.523749E-05  2.889775E-15  3.195578E-15
       506  15  6.827116E-05  9.000027E+00 -4.792482E-08  1.280697E-05  3.777544E-15  1.005726E-14
       506  16  5.378637E-05  9.000027E+00  1.531028E-07  1.485390E-05  8.164968E-17  3.322857E-15
       506  17  5.950957E-05  9.000028E+00 -1.953437E-08  1.261536E-05  2.020532E-15 -4.058625E-16
       506  18  6.511082E-05  9.000028E+00  7.240254E-08  1.066694E-05 -1.292059E-15  1.387323E-14
       506  19  6.270035E-05  9.000025E+00  1.256270E-07  2.116813E-05  2.569467E-08  3.370778E-08
       506  20  6.758326E-05  9.000025E+00  2.192044E-08  1.795687E-05 -6.378061E-09  1.837113E-08
       506  21  7.229661E-05  9.000026E+00  7.171139E-08  1.503574E-05 -3.845080E-08  2.683660E-08
       506  22  5.771401E-05  9.000026E+00  7.547771E-08  1.804791E-05  1.797547E-08  6.937827E-09
       506  23  6.299387E-05  9.000027E+00 -1.006260E-07  1.531876E-05 -1.354474E-08 -7.913660E-09
       506  24  6.812797E-05  9.000027E+00 -6.769396E-08  1.287972E-05 -4.506497E-08  1.036985E-09
       506  25  5.367690E-05  9.000027E+00  1.755707E-07  1.493557E-05  2.130344E-08 -1.983211E-08
       506  26  5.937579E-05  9.000028E+00 -2.137677E-08  1.268852E-05 -9.664266E-09 -3.419845E-08
       506  27  6.495273E-05  9.000029E+00  4.624985E-08  1.073159E-05 -4.063197E-08 -2.476261E-08
       507   1  7.442959E-05  9.000025E+00  1.040208E-07  1.288922E-05 -5.557890E-08 -2.919435E-08
       507   2  7.669446E-05  9.000025E+00 -2.397333E-08  9.244625E-06  9.108143E-10 -2.032877E-08
       507   3  7.915813E-05  9.000024E+00  9.977731E-08  5.798761E-06  5.740055E-08 -2.209318E-08
       507   4  7.067444E-05  9.000027E+00  4.731894E-08  1.107082E-05 -5.710038E-08 -3.919830E-09
       507   5  7.318592E-05  9.000026E+00 -1.187775E-07  7.929291E-06  4.445555E-09  3.626339E-09
       507   6  7.590683E-05  9.000026E+00 -8.325947E-09  4.986495E-06  6.599151E-08  5.425628E-10
       507   7  6.762596E-05  9.000028E+00  1.394143E-07  9.240191E-06 -6.411728E-08  2.135466E-08
       507   8  7.039504E-05  9.000028E+00 -3.913928E-08  6.601728E-06  2.484890E-09  2.758146E-08
       507   9  7.338419E-05  9.000028E+00  8.365859E-08  4.161999E-06  6.908704E-08  2.317827E-08
       507  10  7.446723E-05  9.000025E+00  8.440287E-08  1.283899E-05  6.739656E-15  2.950634E-15
       507  11  7.674298E-05  9.000025E+00 -3.271087E-08  9.202169E-06  6.558051E-16 -5.876240E-15
       507  12  7.921753E-05  9.000024E+00  1.019201E-07  5.764083E-06  3.576903E-15 -1.697459E-14
       507  13  7.072569E-05  9.000027E+00  3.353482E-08  1.102422E-05  2.407218E-15  1.445975E-14
       507  14  7.324805E-05  9.000026E+00 -1.216813E-07  7.890462E-06  2.247215E-15  2.380238E-15
       507  15  7.597984E-05  9.000026E+00 -3.493028E-10  4.955444E-06  2.519609E-15 -4.183841E-15
       507  16  6.769082E-05  9.000028E+00  1.314640E-07  9.197211E-06 -9.205193E-16  1.500968E-14
       507  17  7.047078E-05  9.000028E+00 -3.620922E-08  6.566526E-06 -2.614569E-15 -7.400636E-16
       507  18  7.347081E-05  9.000028E+00  9.746901E-08  4.134576E-06 -7.386424E-16 -7.313736E-15
       507  19  7.442959E-05  9.000025E+00  1.040208E-07  1.288922E-05  5.557891E-08  2.919435E-08
       507  20  7.669446E-05  9.000025E+00 -2.397332E-08  9.244625E-06 -9.108208E-10  2.032876E-08
       507  21  7.915813E-05  9.000024E+00  9.977730E-08  5.798761E-06 -5.740054E-08  2.209315E-08
       507  22  7.067444E-05  9.000027E+00  4.731896E-08  1.107082E-05  5.710039E-08  3.919868E-09
       507  23  7.318592E-05  9.000026E+00 -1.187775E-07  7.929291E-06 -4.445563E-09 -3.626347E-09
       507  24  7.590683E-05  9.000026E+00 -8.325963E-09  4.986495E-06 -6.599150E-08 -5.425547E-10
       507  25  6.762596E-05  9.000028E+00  1.394143E-07  9.240191E-06  6.411728E-08 -2.135461E-08
       507  26  7.039504E-05  9.000028E+00 -3.913930E-08  6.601728E-06 -2.484883E-09 -2.758146E-08
       507  27  7.338419E-05  9.000028E+00  8.365855E-08  4.161999E-06 -6.908704E-08 -2.317826E-08
       508   1  7.984395E-05  9.000024E+00  1.054985E-07  3.590510E-06 -6.162390E-08 -2.254866E-08
       508   2  7.969517E-05  9.000024E+00 -3.062667E-08 -1.949601E-14 -2.983093E-15 -1.946669E-08
       508   3  7.984395E-05  9.000024E+00  1.054985E-07 -3.590510E-06  6.162389E-08 -2.254862E-08
       508   4  7.673628E-05  9.000026E+00  2.288958E-08  3.092644E-06 -6.834911E-08 -2.968570E-10
       508   5  7.658441E-05  9.000025E+00 -1.204268E-07 -7.711868E-15 -6.723051E-15  2.785091E-09
       508   6  7.673628E-05  9.000026E+00  2.288957E-08 -3.092644E-06  6.834911E-08 -2.968402E-10
       508   7  7.425952E-05  9.000027E+00  1.045710E-07  2.594779E-06 -7.507432E-08  2.195492E-08
       508   8  7.410458E-05  9.000027E+00 -4.593667E-08 -1.611093E-14 -5.601733E-15  2.503689E-08
       508   9  7.425952E-05  9.000027E+00  1.045710E-07 -2.594779E-06  7.507432E-08  2.195494E-08
       508  10  7.987474E-05  9.000024E+00  9.719081E-08  3.583154E-06 -6.008264E-15 -1.648393E-14
       508  11  7.972596E-05  9.000024E+00 -3.893435E-08 -1.272586E-14 -6.824853E-15 -7.978778E-16
       508  12  7.987474E-05  9.000024E+00  9.719081E-08 -3.583154E-06 -3.486896E-15  2.050674E-14
       508  13  7.677994E-05  9.000026E+00  2.009842E-08  3.085289E-06 -3.216411E-15  1.133590E-15
       508  14  7.662808E-05  9.000025E+00 -1.232180E-07 -5.904797E-15 -3.954514E-15  4.048077E-15
       508  15  7.677994E-05  9.000026E+00  2.009842E-08 -3.085289E-06 -1.905652E-15  4.967286E-15
       508  16  7.431606E-05  9.000027E+00  1.072964E-07  2.587423E-06 -5.675747E-16 -3.406817E-15
       508  17  7.416111E-05  9.000027E+00 -4.321128E-08 -8.144548E-15  1.479159E-15  6.241559E-17
       508  18  7.431606E-05  9.000027E+00  1.072964E-07 -2.587423E-06  1.433791E-15 -5.337545E-15
       508  19  7.984395E-05  9.000024E+00  1.054985E-07  3.590510E-06  6.162389E-08  2.254863E-08
       508  20  7.969517E-05  9.000024E+00 -3.062664E-08 -2.774237E-15 -5.175121E-15  1.946669E-08
       508  21  7.984395E-05  9.000024E+00  1.054985E-07 -3.590509E-06 -6.162390E-08  2.254867E-08
       508  22  7.673628E-05  9.000026E+00  2.288957E-08  3.092644E-06  6.834911E-08  2.968720E-10
       508  23  7.658441E-05  9.000025E+00 -1.204268E-07 -4.683115E-15 -4.177880E-15 -2.785107E-09
       508  24  7.673628E-05  9.000026E+00  2.288956E-08 -3.092644E-06 -6.834912E-08  2.968574E-10
       508  25  7.425952E-05  9.000027E+00  1.045710E-07  2.594779E-06  7.507432E-08 -2.195491E-08
       508  26  7.410458E-05  9.000027E+00 -4.593666E-08 -2.028501E-14 -1.220857E-15 -2.503690E-08
       508  27  7.425952E-05  9.000027E+00  1.045710E-07 -2.594779E-06 -7.507432E-08 -2.195494E-08
       509   1  7.915813E-05  9.000024E+00  9.977728E-08 -5.798761E-06 -5.740054E-08 -2.209315E-08
       509   2  7.669446E-05  9.000025E+00 -2.397336E-08 -9.244625E-06 -9.108163E-10 -2.032879E-08
       509   3  7.442959E-05  9.000025E+00  1.040208E-07 -1.288922E-05  5.557890E-08 -2.919437E-08
       509   4  7.590683E-05  9.000026E+00 -8.325966E-09 -4.986495E-06 -6.599150E-08  5.425816E-10
       509   5  7.318592E-05  9.000026E+00 -1.187776E-07 -7.929291E-06 -4.445557E-09  3.626339E-09
       509   6  7.067444E-05  9.000027E+00  4.731894E-08 -1.107082E-05  5.710038E-08 -3.919859E-09
       509   7  7.338419E-05  9.000028E+00  8.365854E-08 -4.161999E-06 -6.908704E-08  2.317829E-08
       509   8  7.039504E-05  9.000028E+00 -3.913930E-08 -6.601728E-06 -2.484868E-09  2.758147E-08
       509   9  6.762596E-05  9.000028E+00  1.394143E-07 -9.240191E-06  6.411729E-08  2.135465E-08
       509  10  7.921753E-05  9.000024E+00  1.019201E-07 -5.764083E-06  5.959985E-15  1.873659E-14
       509  11  7.674298E-05  9.000025E+00 -3.271088E-08 -9.202169E-06  7.219223E-15 -1.040198E-15
       509  12  7.446723E-05  9.000025E+00  8.440287E-08 -1.283899E-05  2.220853E-15 -3.541552E-15
       509  13  7.597984E-05  9.000026E+00 -3.493112E-10 -4.955444E-06  4.281363E-15  9.884335E-15
       509  14  7.324805E-05  9.000026E+00 -1.216813E-07 -7.890462E-06  7.169516E-15  1.107874E-15
       509  15  7.072569E-05  9.000027E+00  3.353483E-08 -1.102422E-05  5.012180E-15  3.132036E-16
       509  16  7.347081E-05  9.000028E+00  9.746901E-08 -4.134576E-06  4.529798E-15 -5.243981E-15
       509  17  7.047078E-05  9.000028E+00 -3.620920E-08 -6.566526E-06  6.750150E-15  3.281527E-15
       509  18  6.769082E-05  9.000028E+00  1.314640E-07 -9.197211E-06  1.622697E-15  1.843417E-15
       509  19  7.915813E-05  9.000024E+00  9.977727E-08 -5.798761E-06  5.740056E-08  2.209318E-08
       509  20  7.669446E-05  9.000025E+00 -2.397333E-08 -9.244625E-06  9.108188E-10  2.032878E-08
       509  21  7.442959E-05  9.000025E+00  1.040208E-07 -1.288922E-05 -5.557891E-08  2.919438E-08
       509  22  7.590683E-05  9.000026E+00 -8.325967E-09 -4.986495E-06  6.599151E-08 -5.425606E-10
       509  23  7.318592E-05  9.000026E+00 -1.187775E-07 -7.929291E-06  4.445559E-09 -3.626351E-09
       509  24  7.067444E-05  9.000027E+00  4.731895E-08 -1.107082E-05 -5.710037E-08  3.919870E-09
       509  25  7.338419E-05  9.000028E+00  8.365856E-08 -4.161999E-06  6.908704E-08 -2.317829E-08
       509  26  7.039504E-05  9.000028E+00 -3.913928E-08 -6.601728E-06  2.484869E-09 -2.758148E-08
       509  27  6.762596E-05  9.000028E+00  1.394143E-07 -9.240191E-06 -6.411728E-08 -2.135463E-08
       510   1  7.229661E-05  9.000026E+00  7.171136E-08 -1.503574E-05 -3.845079E-08 -2.683662E-08
       510   2  6.758326E-05  9.000025E+00  2.192041E-08 -1.795687E-05 -6.378056E-09 -1.837113E-08
       510   3  6.270035E-05  9.000025E+00  1.256270E-07 -2.116813E-05  2.569469E-08 -3.370775E-08
       510   4  6.812797E-05  9.000027E+00 -6.769396E-08 -1.287972E-05 -4.506496E-08 -1.036983E-09
       510   5  6.299387E-05  9.000027E+00 -1.006260E-07 -1.531876E-05 -1.354474E-08  7.913642E-09
       510   6  5.771401E-05  9.000026E+00  7.547772E-08 -1.804791E-05  1.797547E-08 -6.937787E-09
       510   7  6.495273E-05  9.000029E+00  4.624983E-08 -1.073159E-05 -4.063196E-08  2.476264E-08
       510   8  5.937579E-05  9.000028E+00 -2.137676E-08 -1.268852E-05 -9.664264E-09  3.419844E-08
       510   9  5.367690E-05  9.000027E+00  1.755707E-07 -1.493557E-05  2.130343E-08  1.983216E-08
       510  10  7.242491E-05  9.000026E+00  8.509697E-08 -1.495488E-05  3.663770E-16 -4.329216E-15
       510  11  6.768725E-05  9.000025E+00  1.099571E-08 -1.786751E-05  8.287298E-15 -4.789118E-15
       510  12  6.278003E-05  9.000024E+00  9.039201E-08 -2.107026E-05  4.041120E-15  2.965608E-15
       510  13  6.827116E-05  9.000027E+00 -4.792482E-08 -1.280697E-05  2.650455E-15  3.514852E-15
       510  14  6.311275E-05  9.000026E+00 -1.051672E-07 -1.523749E-05  2.536533E-15 -8.085231E-16
       510  15  5.780859E-05  9.000025E+00  4.662625E-08 -1.795814E-05  2.475335E-15  5.606022E-15
       510  16  6.511082E-05  9.000028E+00  7.240253E-08 -1.066694E-05  3.290235E-16 -3.061695E-15
       510  17  5.950957E-05  9.000028E+00 -1.953438E-08 -1.261536E-05  6.691340E-15 -5.659543E-15
       510  18  5.378637E-05  9.000027E+00  1.531028E-07 -1.485390E-05  8.852468E-15  3.718366E-15
       510  19  7.229661E-05  9.000026E+00  7.171134E-08 -1.503574E-05  3.845080E-08  2.683661E-08
       510  20  6.758326E-05  9.000025E+00  2.192041E-08 -1.795687E-05  6.378065E-09  1.837113E-08
       510  21  6.270035E-05  9.000025E+00  1.256270E-07 -2.116813E-05 -2.569467E-08  3.370776E-08
       510  22  6.812797E-05  9.000027E+00 -6.769399E-08 -1.287972E-05  4.506496E-08  1.036991E-09
       510  23  6.299387E-05  9.000027E+00 -1.006260E-07 -1.531876E-05  1.354474E-08 -7.913664E-09
       510  24  5.771401E-05  9.000026E+00  7.547771E-08 -1.804791E-05 -1.797546E-08  6.937811E-09
       510  25  6.495273E-05  9.000029E+00  4.624983E-08 -1.073159E-05  4.063196E-08 -2.476263E-08
       510  26  5.937579E-05  9.000028E+00 -2.137676E-08 -1.268852E-05  9.664273E-09 -3.419846E-08
       510  27  5.367690E-05  9.000027E+00  1.755707E-07 -1.493557E-05 -2.130342E-08 -1.983213E-08
       511   1  5.894963E-05  9.000024E+00 -2.659868E-08 -2.273415E-05  2.220449E-08 -3.369771E-08
       511   2  5.247376E-05  9.000020E+00  6.923182E-08 -2.371440E-05 -1.489776E-08 -1.990856E-08
       511   3  4.496345E-05  9.000013E+00  5.123745E-08 -2.480908E-05 -5.199998E-08 -3.237226E-08
       511   4  5.344025E-05  9.000024E+00 -1.807729E-07 -1.930296E-05  1.974675E-08 -6.865442E-09
       511   5  4.669919E-05  9.000020E+00 -2.525809E-08 -2.003882E-05 -2.650161E-08  6.652622E-09
       511   6  3.894994E-05  9.000013E+00  7.768856E-08 -2.088911E-05 -7.274996E-08 -6.082119E-09
       511   7  4.921420E-05  9.000025E+00 -7.172057E-08 -1.594604E-05  3.348718E-08  1.996679E-08
       511   8  4.217555E-05  9.000021E+00  6.788732E-08 -1.643751E-05 -2.190733E-08  3.321382E-08
       511   9  3.415496E-05  9.000013E+00  2.161837E-07 -1.704340E-05 -7.730182E-08  2.020802E-08
       511  10  5.921486E-05  9.000023E+00  7.535783E-09 -2.261129E-05  4.883406E-15  2.742973E-15
       511  11  5.270224E-05  9.000020E+00  6.661554E-08 -2.358856E-05  6.973466E-15 -2.219991E-15
       511  12  4.515518E-05  9.000013E+00  1.187043E-08 -2.468025E-05  6.948627E-15  4.717533E-16
       511  13  5.371071E-05  9.000024E+00 -1.443996E-07 -1.919235E-05  2.988287E-15  1.000165E-14
       511  14  4.693289E-05  9.000020E+00 -2.563548E-08 -1.992523E-05  3.917879E-15  2.676874E-15
       511  15  3.914689E-05  9.000012E+00  4.056044E-08 -2.077253E-05  5.912226E-15  1.046525E-14
       511  16  4.948988E-05  9.000025E+00 -3.310829E-08 -1.584768E-05  7.558561E-15  1.974358E-15
       511  17  4.241448E-05  9.000020E+00  6.974887E-08 -1.633616E-05  6.222336E-15 -1.665115E-15
       511  18  3.435714E-05  9.000013E+00  1.812945E-07 -1.693907E-05  4.218484E-15  1.216874E-14
       511  19  5.894963E-05  9.000024E+00 -2.659870E-08 -2.273415E-05 -2.220446E-08  3.369772E-08
       511  20  5.247376E-05  9.000020E+00  6.923182E-08 -2.371440E-05  1.489777E-08  1.990856E-08
       511  21  4.496345E-05  9.000013E+00  5.123745E-08 -2.480908E-05  5.199999E-08  3.237228E-08
       511  22  5.344025E-05  9.000024E+00 -1.807730E-07 -1.930296E-05 -1.974674E-08  6.865472E-09
       511  23  4.669919E-05  9.000020E+00 -2.525811E-08 -2.003882E-05  2.650162E-08 -6.652631E-09
       511  24  3.894994E-05  9.000013E+00  7.768855E-08 -2.088911E-05  7.274998E-08  6.082148E-09
       511  25  4.921420E-05  9.000025E+00 -7.172060E-08 -1.594604E-05 -3.348716E-08 -1.996678E-08
       511  26  4.217555E-05  9.000021E+00  6.788730E-08 -1.643751E-05  2.190734E-08 -3.321383E-08
       511  27  3.415496E-05  9.000013E+00  2.161837E-07 -1.704340E-05  7.730183E-08 -2.020798E-08
       512   1  3.983871E-05  9.000007E+00 -3.440693E-07 -2.431276E-05  1.491531E-07 -3.379296E-08
       512   2  3.441968E-05  8.999994E+00  3.617491E-07 -2.116691E-05 -4.720175E-08  6.627542E-09
       512   3  2.642205E-05  8.999973E+00  3.536264E-07 -1.781258E-05 -2.435566E-07  7.166912E-08
       512   4  3.358837E-05  9.000007E+00 -3.597320E-07 -2.034226E-05  1.471188E-07 -1.335800E-08
       512   5  2.805466E-05  8.999992E+00  2.151136E-07 -1.760407E-05 -4.663648E-08  7.212190E-09
       512   6  1.991773E-05  8.999970E+00  1.856884E-08 -1.465738E-05 -2.403917E-07  5.240349E-08
       512   7  2.871238E-05  9.000006E+00 -2.287473E-07 -1.657966E-05  1.579115E-07  7.076940E-09
       512   8  2.303835E-05  8.999991E+00  1.552656E-07 -1.424911E-05 -3.324413E-08  7.796863E-09
       512   9  1.473647E-05  8.999968E+00 -2.895608E-07 -1.171007E-05 -2.243998E-07  3.313786E-08
       512  10  4.026047E-05  9.000007E+00 -2.994723E-07 -2.418159E-05  6.789463E-15  2.292115E-15
       512  11  3.479026E-05  8.999994E+00  3.551536E-07 -2.104303E-05 -1.293907E-15  3.341368E-15
       512  12  2.674143E-05  8.999973E+00  2.958384E-07 -1.769599E-05 -2.026525E-15  8.583794E-15
       512  13  3.399739E-05  9.000006E+00 -3.205974E-07 -2.022816E-05  7.098099E-15  1.565915E-14
       512  14  2.841249E-05  8.999992E+00  2.030557E-07 -1.749725E-05 -1.885160E-15  6.507479E-15
       512  15  2.022437E-05  8.999970E+00 -4.468154E-08 -1.455785E-05 -5.533828E-15  5.749690E-15
       512  16  2.910866E-05  9.000006E+00 -1.950751E-07 -1.648262E-05 -1.289226E-15  1.414757E-14
       512  17  2.338344E-05  8.999990E+00  1.377454E-07 -1.415935E-05 -4.728256E-15  2.267313E-15
       512  18  1.503036E-05  8.999967E+00 -3.582736E-07 -1.162760E-05  1.463350E-15  2.133739E-15
       512  19  3.983871E-05  9.000007E+00 -3.440693E-07 -2.431276E-05 -1.491531E-07  3.379297E-08
       512  20  3.441968E-05  8.999994E+00  3.617491E-07 -2.116691E-05  4.720176E-08 -6.627529E-09
       512  21  2.642205E-05  8.999973E+00  3.536264E-07 -1.781258E-05  2.435566E-07 -7.166909E-08
       512  22  3.358837E-05  9.000007E+00 -3.597320E-07 -2.034226E-05 -1.471187E-07  1.335804E-08
       512  23  2.805466E-05  8.999992E+00  2.151136E-07 -1.760407E-05  4.663648E-08 -7.212193E-09
       512  24  1.991773E-05  8.999970E+00  1.856882E-08 -1.465738E-05  2.403917E-07 -5.240347E-08
       512  25  2.871238E-05  9.000006E+00 -2.287473E-07 -1.657966E-05 -1.579115E-07 -7.076889E-09
       512  26  2.303835E-05  8.999991E+00  1.552656E-07 -1.424911E-05  3.324411E-08 -7.796861E-09
       512  27  1.473647E-05  8.999968E+00 -2.895608E-07 -1.171007E-05  2.243997E-07 -3.313785E-08
       513   1  2.153963E-05  8.999957E+00 -5.808173E-07 -1.376400E-05  2.789198E-07  3.415326E-08
       513   2  2.136925E-05  8.999922E+00 -1.515951E-07 -7.337075E-06  7.445798E-08 -8.782956E-08
       513   3  1.729064E-05  8.999875E+00 -1.095757E-06 -1.183367E-06 -1.300038E-07 -7.367779E-08
       513   4  1.600134E-05  8.999954E+00 -4.113870E-07 -1.151806E-05  2.704870E-07  1.592701E-08
       513   5  1.585519E-05  8.999920E+00  3.307663E-07 -6.380816E-06  5.662826E-08 -8.263383E-08
       513   6  1.166469E-05  8.999874E+00 -6.181123E-07 -1.516794E-06 -1.572305E-07 -4.506006E-08
       513   7  1.130718E-05  8.999951E+00 -4.281876E-07 -9.108523E-06  2.563591E-07 -2.299271E-09
       513   8  1.119665E-05  8.999918E+00  6.534735E-07 -5.260967E-06  3.310350E-08 -7.743807E-08
       513   9  6.905650E-06  8.999873E+00 -2.735446E-07 -1.686631E-06 -1.901521E-07 -1.644232E-08
       513  10  2.217472E-05  8.999956E+00 -5.053036E-07 -1.378398E-05 -5.105175E-15  4.691446E-15
       513  11  2.204350E-05  8.999921E+00 -3.691795E-08 -7.415148E-06 -8.041235E-15 -3.683669E-15
       513  12  1.800406E-05  8.999875E+00 -9.419168E-07 -1.319538E-06 -1.118450E-14 -3.004272E-15
       513  13  1.653476E-05  8.999953E+00 -3.794469E-07 -1.152498E-05 -1.020003E-15  9.710313E-15
       513  14  1.642777E-05  8.999919E+00  4.018698E-07 -6.445835E-06 -5.855813E-15 -2.258128E-15
       513  15  1.227644E-05  8.999874E+00 -5.078453E-07 -1.639911E-06 -7.411827E-16 -7.597266E-15
       513  16  1.173892E-05  8.999951E+00 -4.398211E-07 -9.102390E-06  1.850270E-15  2.497525E-15
       513  17  1.166756E-05  8.999918E+00  6.810034E-07 -5.312932E-06 -7.982612E-15 -1.805278E-15
       513  18  7.415721E-06  8.999873E+00 -2.068512E-07 -1.796694E-06 -7.705496E-15 -1.070150E-14
       513  19  2.153963E-05  8.999957E+00 -5.808173E-07 -1.376400E-05 -2.789198E-07 -3.415325E-08
       513  20  2.136925E-05  8.999922E+00 -1.515951E-07 -7.337074E-06 -7.445801E-08  8.782955E-08
       513  21  1.729064E-05  8.999875E+00 -1.095758E-06 -1.183366E-06  1.300038E-07  7.367780E-08
       513  22  1.600134E-05  8.999954E+00 -4.113870E-07 -1.151806E-05 -2.704869E-07 -1.592698E-08
       513  23  1.585519E-05  8.999920E+00  3.307663E-07 -6.380816E-06 -5.662828E-08  8.263381E-08
       513  24  1.166469E-05  8.999874E+00 -6.181123E-07 -1.516794E-06  1.572304E-07  4.506005E-08
       513  25  1.130718E-05  8.999951E+00 -4.281876E-07 -9.108523E-06 -2.563591E-07  2.299292E-09
       513  26  1.119665E-05  8.999918E+00  6.534735E-07 -5.260967E-06 -3.310351E-08  7.743806E-08
       513  27  6.905650E-06  8.999873E+00 -2.735446E-07 -1.686631E-06  1.901521E-07  1.644231E-08
       514   1  2.201765E-05  8.999846E+00  1.017295E-06  9.574602E-07  5.140328E-08 -1.309044E-08
       514   2  2.148608E-05  8.999790E+00  6.186811E-07 -1.839100E-06 -2.337215E-07  2.179975E-08
       514   3  2.085851E-05  8.999732E+00  9.969590E-07 -4.910877E-06 -5.188463E-07 -5.375438E-08
       514   4  1.407148E-05  8.999844E+00  4.020404E-07  2.327323E-07  6.737078E-08  2.650729E-08
       514   5  1.333063E-05  8.999789E+00 -1.648893E-07 -1.338694E-06 -1.129146E-07  7.570812E-08
       514   6  1.260423E-05  8.999732E+00  3.027757E-07 -3.185337E-06 -2.931999E-07  1.446465E-08
       514   7  8.445874E-06  8.999844E+00  2.835959E-07 -3.426468E-07  8.281755E-08  6.610502E-08
       514   8  7.496788E-06  8.999789E+00 -4.492201E-07 -6.889386E-07  7.371605E-09  1.296165E-07
       514   9  6.672595E-06  8.999733E+00  1.102621E-07 -1.310448E-06 -6.807435E-08  8.268366E-08
       514  10  2.182363E-05  8.999845E+00  7.916185E-07  8.298465E-07 -5.337129E-15  1.945140E-15
       514  11  2.130933E-05  8.999789E+00  4.102761E-07 -1.846667E-06 -6.812724E-15  4.324273E-15
       514  12  2.069903E-05  8.999732E+00  8.058251E-07 -4.798398E-06 -1.485847E-14 -9.591975E-15
       514  13  1.408754E-05  8.999844E+00  2.663990E-07  1.108755E-07 -3.292796E-15  6.364530E-16
       514  14  1.336396E-05  8.999788E+00 -2.832597E-07 -1.340504E-06 -6.766312E-15  4.792651E-15
       514  15  1.265483E-05  8.999732E+00  2.016764E-07 -3.067101E-06 -7.305029E-15 -8.505391E-16
       514  16  8.672015E-06  8.999843E+00  2.379891E-07 -4.587465E-07 -8.814161E-15 -9.003895E-15
       514  17  7.740200E-06  8.999788E+00 -4.775558E-07 -6.849921E-07 -8.462127E-15  1.824959E-15
       514  18  6.933278E-06  8.999733E+00  9.919752E-08 -1.186455E-06 -4.916269E-15  5.210229E-15
       514  19  2.201765E-05  8.999846E+00  1.017295E-06  9.574603E-07 -5.140328E-08  1.309044E-08
       514  20  2.148608E-05  8.999790E+00  6.186811E-07 -1.839100E-06  2.337215E-07 -2.179975E-08
       514  21  2.085851E-05  8.999732E+00  9.969590E-07 -4.910877E-06  5.188463E-07  5.375437E-08
       514  22  1.407148E-05  8.999844E+00  4.020404E-07  2.327323E-07 -6.737079E-08 -2.650729E-08
       514  23  1.333063E-05  8.999789E+00 -1.648894E-07 -1.338694E-06  1.129146E-07 -7.570813E-08
       514  24  1.260423E-05  8.999732E+00  3.027757E-07 -3.185337E-06  2.931999E-07 -1.446465E-08
       514  25  8.445874E-06  8.999844E+00  2.835959E-07 -3.426468E-07 -8.281758E-08 -6.610502E-08
       514  26  7.496788E-06  8.999789E+00 -4.492201E-07 -6.889386E-07 -7.371608E-09 -1.296165E-07
       514  27  6.672595E-06  8.999733E+00  1.102622E-07 -1.310448E-06  6.807435E-08 -8.268364E-08
       515   1  1.223650E-05  8.999697E+00 -1.582942E-06 -7.364419E-06 -1.931046E-07 -1.314496E-07
       515   2  7.899343E-06  8.999639E+00 -2.962156E-07 -5.073845E-06 -1.770985E-08 -3.067008E-08
       515   3  4.660721E-07  8.999571E+00  4.199898E-07 -1.091651E-06  1.576849E-07  4.123773E-07
       515   4  7.614614E-06  8.999698E+00 -8.044820E-07 -4.248207E-06 -1.525132E-08 -8.055144E-08
       515   5  4.972133E-06  8.999638E+00  2.311663E-07 -2.774411E-06 -9.240435E-09 -5.360558E-08
       515   6 -1.108733E-06  8.999569E+00 -1.023312E-07  3.910048E-07 -3.229570E-09  3.156081E-07
       515   7  4.214883E-06  8.999699E+00  3.463915E-09 -1.490350E-06  1.636113E-07 -2.965330E-08
       515   8  3.265055E-06  8.999638E+00  7.833238E-07 -8.333327E-07  2.383761E-10 -7.654104E-08
       515   9 -1.465425E-06  8.999567E+00 -6.045869E-07  1.515305E-06 -1.631346E-07  2.188390E-07
       515  10  1.347509E-05  8.999697E+00 -1.186221E-06 -7.271631E-06 -2.070085E-14 -1.107792E-14
       515  11  9.052600E-06  8.999638E+00  1.517166E-08 -5.236445E-06 -1.999492E-14 -3.696659E-15
       515  12  1.533995E-06  8.999570E+00  6.460432E-07 -1.509639E-06 -7.012153E-15 -1.019283E-14
       515  13  8.406275E-06  8.999698E+00 -5.993021E-07 -4.183864E-06 -7.676471E-15 -7.910147E-16
       515  14  5.678460E-06  8.999638E+00  3.510123E-07 -2.965456E-06 -6.580723E-15 -7.036521E-15
       515  15 -4.877396E-07  8.999568E+00 -6.781910E-08 -5.542865E-08 -1.639166E-14 -1.180021E-14
       515  16  4.559615E-06  8.999699E+00  1.710266E-08 -1.454452E-06 -2.799249E-15 -2.073146E-15
       515  17  3.524453E-06  8.999638E+00  7.116287E-07 -1.052822E-06 -1.971643E-16 -1.240624E-14
       515  18 -1.291361E-06  8.999566E+00 -7.616160E-07  1.040427E-06 -2.175398E-14 -9.923524E-15
       515  19  1.223650E-05  8.999697E+00 -1.582942E-06 -7.364419E-06  1.931045E-07  1.314496E-07
       515  20  7.899343E-06  8.999639E+00 -2.962156E-07 -5.073845E-06  1.770981E-08  3.067007E-08
       515  21  4.660721E-07  8.999571E+00  4.199898E-07 -1.091651E-06 -1.576849E-07 -4.123773E-07
       515  22  7.614614E-06  8.999698E+00 -8.044820E-07 -4.248207E-06  1.525127E-08  8.055145E-08
       515  23  4.972133E-06  8.999638E+00  2.311663E-07 -2.774411E-06  9.240418E-09  5.360554E-08
       515  24 -1.108733E-06  8.999569E+00 -1.023312E-07  3.910048E-07  3.229526E-09 -3.156081E-07
       515  25  4.214883E-06  8.999699E+00  3.463948E-09 -1.490350E-06 -1.636113E-07  2.965330E-08
       515  26  3.265055E-06  8.999638E+00  7.833238E-07 -8.333327E-07 -2.383653E-10  7.654101E-08
       515  27 -1.465426E-06  8.999567E+00 -6.045869E-07  1.515305E-06  1.631346E-07 -2.188390E-07
       601   1 -3.082038E-07  8.999569E+00  3.846198E-07 -1.158738E-06  1.757752E-07  1.673614E-07
       601   2  1.293183E-06  8.999635E+00 -3.009492E-07 -3.500302E-08 -1.642786E-08 -7.004747E-08
       601   3  2.003855E-06  8.999698E+00 -4.932834E-07  5.262955E-07 -2.086309E-07 -5.968157E-08
       601   4 -8.493953E-07  8.999569E+00 -3.669719E-08 -1.047846E-06  8.671040E-08  1.499370E-07
       601   5  2.896472E-07  8.999636E+00 -3.487028E-08 -2.383976E-07 -3.518332E-08 -6.671503E-08
       601   6  2.901995E-07  8.999698E+00 -1.179497E-07  8.614189E-09 -1.570770E-07 -3.559225E-08
       601   7 -8.265991E-07  8.999570E+00 -2.373963E-07 -9.098068E-07  3.908537E-08  1.325126E-07
       601   8 -2.327807E-07  8.999636E+00  2.584408E-07 -4.146448E-07 -1.249895E-08 -6.338257E-08
       601   9 -1.025227E-06  8.999698E+00  9.123031E-08 -4.819196E-07 -6.408329E-08 -1.150290E-08
       601  10  8.863315E-08  8.999570E+00  5.363732E-07 -9.222094E-07 -3.589969E-15  8.814428E-15
       601  11  1.620132E-06  8.999635E+00 -2.190839E-07  1.613425E-07 -3.126790E-15 -1.730301E-17
       601  12  2.260915E-06  8.999698E+00 -4.813063E-07  6.824574E-07 -4.494912E-15 -5.691770E-15
       601  13 -5.228794E-07  8.999569E+00  8.491854E-08 -8.346134E-07 -6.859715E-15  2.019133E-15
       601  14  5.462750E-07  8.999636E+00  1.685737E-08 -6.534821E-08 -4.016925E-16 -1.493506E-15
       601  15  4.769393E-07  8.999698E+00 -1.361102E-07  1.414801E-07  7.023477E-15 -2.753497E-15
       601  16 -5.704044E-07  8.999570E+00 -1.459182E-07 -7.198699E-07 -7.439186E-15 -1.931222E-15
       601  17 -4.647404E-08  8.999636E+00  2.800308E-07 -2.648914E-07 -2.275146E-15 -1.144987E-14
       601  18 -9.088086E-07  8.999698E+00  4.293226E-08 -3.723497E-07 -2.269123E-15 -6.499238E-15
       601  19 -3.082038E-07  8.999569E+00  3.846199E-07 -1.158738E-06 -1.757752E-07 -1.673614E-07
       601  20  1.293183E-06  8.999635E+00 -3.009492E-07 -3.500300E-08  1.642784E-08  7.004747E-08
       601  21  2.003855E-06  8.999698E+00 -4.932834E-07  5.262955E-07  2.086309E-07  5.968157E-08
       601  22 -8.493953E-07  8.999569E+00 -3.669717E-08 -1.047846E-06 -8.671040E-08 -1.499370E-07
       601  23  2.896472E-07  8.999636E+00 -3.487026E-08 -2.383976E-07  3.518331E-08  6.671502E-08
       601  24  2.901996E-07  8.999698E+00 -1.179497E-07  8.614191E-09  1.570770E-07  3.559223E-08
       601  25 -8.265990E-07  8.999570E+00 -2.373963E-07 -9.098069E-07 -3.908540E-08 -1.325126E-07
       601  26 -2.327807E-07  8.999636E+00  2.584408E-07 -4.146448E-07  1.249895E-08  6.338257E-08
       601  27 -1.025227E-06  8.999698E+00  9.123034E-08 -4.819196E-07  6.408327E-08  1.150289E-08
       602   1  4.363791E-06  8.999734E+00  3.022052E-07  8.761997E-07  1.267630E-08  2.125845E-09
       602   2  5.826604E-06  8.999791E+00  4.039703E-07  6.935489E-07 -4.157884E-08  1.999883E-08
       602   3  5.917863E-06  8.999844E+00  3.589961E-07  3.532551E-07 -9.583399E-08  3.443697E-10
       602   4  8.037843E-07  8.999733E+00 -6.072455E-08  3.494729E-07  5.281491E-08  2.951936E-08
       602   5  2.032857E-06  8.999790E+00  6.029580E-08  4.191610E-07 -3.345762E-08  3.799025E-08
       602   6  1.927903E-06  8.999843E+00  1.221409E-07  3.312063E-07 -1.197301E-07  8.933704E-09
       602   7 -1.184809E-06  8.999733E+00 -1.427827E-07 -1.870473E-07  1.018210E-07  5.691288E-08
       602   8 -2.072111E-07  8.999790E+00 -4.388896E-08  1.349798E-07 -1.646886E-08  5.598168E-08
       602   9 -5.261135E-07  8.999842E+00  8.339353E-08  2.993641E-07 -1.347588E-07  1.752306E-08
       602  10  4.694363E-06  8.999733E+00  3.289898E-07  9.629309E-07 -7.760476E-15 -2.146390E-15
       602  11  6.126647E-06  8.999791E+00  4.002255E-07  7.703398E-07 -9.801847E-15  4.299431E-15
       602  12  6.187376E-06  8.999843E+00  3.247220E-07  4.201058E-07 -7.246861E-15  6.330623E-15
       602  13  1.116961E-06  8.999733E+00 -4.139520E-08  4.260276E-07  6.181603E-15 -4.691311E-15
       602  14  2.315505E-06  8.999790E+00  4.909581E-08  4.857754E-07 -7.131129E-15  5.521106E-15
       602  15  2.180021E-06  8.999842E+00  8.041161E-08  3.878805E-07 -8.702385E-15  6.264410E-15
       602  16 -8.890271E-07  8.999733E+00 -1.309085E-07 -1.206691E-07 -7.150795E-15 -2.304142E-15
       602  17  5.804126E-08  8.999790E+00 -6.254411E-08  1.914178E-07 -1.368442E-14 -2.450103E-15
       602  18 -2.913904E-07  8.999842E+00  3.420903E-08  3.458619E-07 -1.609341E-14 -2.239609E-15
       602  19  4.363791E-06  8.999734E+00  3.022053E-07  8.761998E-07 -1.267632E-08 -2.125845E-09
       602  20  5.826604E-06  8.999791E+00  4.039703E-07  6.935489E-07  4.157882E-08 -1.999882E-08
       602  21  5.917863E-06  8.999844E+00  3.589962E-07  3.532551E-07  9.583395E-08 -3.443483E-10
       602  22  8.037842E-07  8.999733E+00 -6.072458E-08  3.494729E-07 -5.281490E-08 -2.951936E-08
       602  23  2.032857E-06  8.999790E+00  6.029579E-08  4.191610E-07  3.345761E-08 -3.799024E-08
       602  24  1.927903E-06  8.999843E+00  1.221409E-07  3.312062E-07  1.197301E-07 -8.933705E-09
       602  25 -1.184809E-06  8.999733E+00 -1.427827E-07 -1.870474E-07 -1.018211E-07 -5.691289E-08
       602  26 -2.072111E-07  8.999790E+00 -4.388895E-08  1.349798E-07  1.646883E-08 -5.598167E-08
       602  27 -5.261135E-07  8.999842E+00  8.339355E-08  2.993641E-07  1.347587E-07 -1.752306E-08
       603   1  4.022441E-06  8.999871E+00 -7.344388E-07  1.411711E-06  2.005421E-07 -2.262450E-08
       603   2  8.234180E-06  8.999916E+00  5.618429E-08  4.578109E-06 -2.446819E-08 -2.683696E-08
       603   3  9.182912E-06  8.999950E+00 -3.157543E-07  7.859666E-06 -2.494785E-07  1.673015E-08
       603   4  1.073661E-06  8.999871E+00 -4.574720E-07  1.136642E-06  2.004458E-07 -1.869255E-08
       603   5  5.290297E-06  8.999915E+00  2.717666E-07  3.352410E-06 -2.119753E-08 -2.950799E-08
       603   6  6.196147E-06  8.999949E+00 -2.730421E-07  5.683338E-06 -2.428409E-07  7.456118E-09
       603   7 -9.638150E-07  8.999871E+00 -2.612978E-07  7.838097E-07  2.015832E-07 -1.476059E-08
       603   8  3.255251E-06  8.999914E+00  4.007989E-07  2.048948E-06 -1.669318E-08 -3.217902E-08
       603   9  4.115751E-06  8.999948E+00 -3.226372E-07  3.429246E-06 -2.349696E-07 -1.817895E-09
       603  10  4.486959E-06  8.999871E+00 -6.919129E-07  1.446974E-06 -7.469344E-15  2.982516E-15
       603  11  8.688494E-06  8.999915E+00  8.850597E-08  4.597980E-06 -1.272968E-14 -3.143723E-15
       603  12  9.627022E-06  8.999950E+00 -2.936368E-07  7.864145E-06 -6.178226E-15  3.291756E-15
       603  13  1.511243E-06  8.999871E+00 -4.264901E-07  1.168504E-06 -7.293795E-15 -5.550757E-16
       603  14  5.717675E-06  8.999915E+00  2.925442E-07  3.368880E-06 -3.860826E-15 -2.125634E-15
       603  15  6.613321E-06  8.999949E+00 -2.624687E-07  5.684416E-06 -8.199835E-17  1.356082E-15
       603  16 -5.531691E-07  8.999870E+00 -2.418601E-07  8.122703E-07 -1.159104E-14 -4.098109E-15
       603  17  3.655692E-06  8.999914E+00  4.100324E-07  2.062016E-06 -6.494828E-15 -9.486076E-15
       603  18  4.505988E-06  8.999948E+00 -3.236079E-07  3.426922E-06 -1.188541E-15 -7.581848E-15
       603  19  4.022441E-06  8.999871E+00 -7.344387E-07  1.411711E-06 -2.005421E-07  2.262451E-08
       603  20  8.234180E-06  8.999916E+00  5.618431E-08  4.578109E-06  2.446817E-08  2.683695E-08
       603  21  9.182912E-06  8.999950E+00 -3.157543E-07  7.859666E-06  2.494785E-07 -1.673014E-08
       603  22  1.073661E-06  8.999871E+00 -4.574720E-07  1.136642E-06 -2.004458E-07  1.869256E-08
       603  23  5.290297E-06  8.999915E+00  2.717666E-07  3.352410E-06  2.119753E-08  2.950799E-08
       603  24  6.196147E-06  8.999949E+00 -2.730421E-07  5.683338E-06  2.428409E-07 -7.456128E-09
       603  25 -9.638149E-07  8.999871E+00 -2.612978E-07  7.838097E-07 -2.015833E-07  1.476058E-08
       603  26  3.255251E-06  8.999914E+00  4.007989E-07  2.048948E-06  1.669316E-08  3.217903E-08
       603  27  4.115751E-06  8.999948E+00 -3.226372E-07  3.429246E-06  2.349696E-07  1.817881E-09
       604   1  1.277375E-05  8.999967E+00  4.990164E-08  1.007236E-05  2.192343E-07  2.703648E-08
       604   2  2.081819E-05  8.999990E+00  2.757580E-07  1.219372E-05  2.875376E-08 -2.210801E-09
       604   3  2.623991E-05  9.000006E+00 -3.375161E-07  1.420986E-05 -1.617268E-07 -1.636306E-08
       604   4  9.479279E-06  8.999966E+00 -7.755581E-08  7.187215E-06  2.209191E-07  1.873020E-08
       604   5  1.756466E-05  8.999989E+00  2.289210E-07  8.753471E-06  3.015912E-08 -5.883790E-10
       604   6  2.301222E-05  9.000005E+00 -3.389543E-07  1.021451E-05 -1.606009E-07 -4.811960E-09
       604   7  7.274874E-06  8.999965E+00 -2.116558E-07  4.393478E-06  2.151124E-07  1.042395E-08
       604   8  1.541618E-05  8.999989E+00  2.104021E-07  5.404630E-06  2.407290E-08  1.034052E-09
       604   9  2.090456E-05  9.000005E+00 -2.771139E-07  6.310563E-06 -1.669666E-07  6.739170E-09
       604  10  1.311242E-05  8.999967E+00  2.979373E-08  1.002581E-05 -6.880121E-15  4.247811E-15
       604  11  2.118489E-05  8.999990E+00  2.836759E-07  1.214130E-05 -7.911678E-15 -9.156531E-16
       604  12  2.663463E-05  9.000005E+00 -3.015724E-07  1.415157E-05 -6.073174E-15  8.620509E-15
       604  13  9.807675E-06  8.999965E+00 -1.020664E-07  7.150009E-06  8.831563E-16 -3.059116E-15
       604  14  1.792108E-05  8.999989E+00  2.324362E-07  8.710395E-06 -3.376367E-15  4.866388E-16
       604  15  2.339667E-05  9.000005E+00 -3.074133E-07  1.016556E-05 -6.008338E-15  1.009538E-14
       604  16  7.592998E-06  8.999964E+00 -2.405691E-07  4.365615E-06 -3.065282E-15 -5.887027E-15
       604  17  1.576233E-05  8.999988E+00  2.095147E-07  5.370896E-06 -4.338649E-15 -5.018298E-15
       604  18  2.127874E-05  9.000005E+00 -2.499755E-07  6.270960E-06 -5.055319E-15  4.160740E-15
       604  19  1.277375E-05  8.999967E+00  4.990162E-08  1.007236E-05 -2.192343E-07 -2.703647E-08
       604  20  2.081819E-05  8.999990E+00  2.757580E-07  1.219372E-05 -2.875377E-08  2.210796E-09
       604  21  2.623991E-05  9.000006E+00 -3.375161E-07  1.420986E-05  1.617268E-07  1.636308E-08
       604  22  9.479279E-06  8.999966E+00 -7.755584E-08  7.187215E-06 -2.209191E-07 -1.873021E-08
       604  23  1.756466E-05  8.999989E+00  2.289210E-07  8.753471E-06 -3.015912E-08  5.883788E-10
       604  24  2.301222E-05  9.000005E+00 -3.389543E-07  1.021451E-05  1.606009E-07  4.811962E-09
       604  25  7.274874E-06  8.999965E+00 -2.116558E-07  4.393478E-06 -2.151124E-07 -1.042397E-08
       604  26  1.541618E-05  8.999989E+00  2.104021E-07  5.404630E-06 -2.407291E-08 -1.034044E-09
       604  27  2.090456E-05  9.000005E+00 -2.771138E-07  6.310563E-06  1.669666E-07 -6.739165E-09
       605   1  3.166991E-05  9.000012E+00  9.070671E-08  1.464330E-05  8.106628E-08 -1.634530E-08
       605   2  3.997039E-05  9.000021E+00  8.984968E-08  1.418479E-05  2.200731E-08 -1.819450E-08
       605   3  4.709422E-05  9.000026E+00 -8.303709E-08  1.375123E-05 -3.705168E-08 -2.983258E-08
       605   4  2.843689E-05  9.000012E+00  6.091168E-08  1.055897E-05  9.193397E-08 -4.033474E-10
       605   5  3.682796E-05  9.000021E+00  5.564434E-09  1.024380E-05  2.942814E-08  2.907885E-09
       605   6  4.405217E-05  9.000026E+00 -1.989718E-07  9.953590E-06 -3.307768E-08 -3.569780E-09
       605   7  2.637338E-05  9.000012E+00  1.376007E-07  6.520301E-06  9.045009E-08  1.553862E-08
       605   8  3.487975E-05  9.000021E+00  8.540390E-08  6.348486E-06  2.449741E-08  2.401028E-08
       605   9  4.222905E-05  9.000026E+00 -9.314113E-08  6.201626E-06 -4.145527E-08  2.269305E-08
       605  10  3.187165E-05  9.000012E+00  5.418894E-08  1.457672E-05 -2.275863E-15  9.154994E-15
       605  11  4.020572E-05  9.000021E+00  8.692841E-08  1.411929E-05 -5.406005E-16 -4.502349E-18
       605  12  4.736315E-05  9.000025E+00 -5.236186E-08  1.368681E-05  8.106131E-16  6.795489E-15
       605  13  2.864052E-05  9.000012E+00  2.520818E-08  1.050358E-05 -4.331860E-15  5.637894E-15
       605  14  3.706519E-05  9.000021E+00  3.457448E-09  1.018950E-05 -2.190870E-15  2.133441E-15
       605  15  4.432300E-05  9.000026E+00 -1.674823E-07  9.900378E-06  4.500449E-16  9.481759E-15
       605  16  2.657892E-05  9.000012E+00  1.027115E-07  6.476117E-06 -4.276852E-15  2.888809E-15
       605  17  3.511888E-05  9.000021E+00  8.411121E-08  6.305387E-06 -2.293152E-15 -5.939692E-15
       605  18  4.250177E-05  9.000026E+00 -6.083732E-08  6.159613E-06  1.395928E-15  3.048356E-15
       605  19  3.166991E-05  9.000012E+00  9.070675E-08  1.464330E-05 -8.106629E-08  1.634533E-08
       605  20  3.997039E-05  9.000021E+00  8.984971E-08  1.418479E-05 -2.200730E-08  1.819450E-08
       605  21  4.709422E-05  9.000026E+00 -8.303707E-08  1.375123E-05  3.705169E-08  2.983260E-08
       605  22  2.843689E-05  9.000012E+00  6.091168E-08  1.055897E-05 -9.193398E-08  4.033640E-10
       605  23  3.682796E-05  9.000021E+00  5.564441E-09  1.024380E-05 -2.942815E-08 -2.907880E-09
       605  24  4.405217E-05  9.000026E+00 -1.989718E-07  9.953590E-06  3.307769E-08  3.569781E-09
       605  25  2.637338E-05  9.000012E+00  1.376007E-07  6.520301E-06 -9.045010E-08 -1.553862E-08
       605  26  3.487975E-05  9.000021E+00  8.540391E-08  6.348486E-06 -2.449742E-08 -2.401027E-08
       605  27  4.222905E-05  9.000026E+00 -9.314111E-08  6.201626E-06  4.145526E-08 -2.269304E-08
       606   1  5.164454E-05  9.000027E+00  1.559677E-07  1.290545E-05 -2.054299E-08 -3.101393E-08
       606   2  5.759012E-05  9.000029E+00  1.447582E-08  1.103497E-05  1.009996E-08 -2.460801E-08
       606   3  6.332105E-05  9.000029E+00  5.859818E-08  9.288909E-06  4.074291E-08 -2.980736E-08
       606   4  4.883699E-05  9.000028E+00  8.313988E-08  9.364116E-06 -1.403480E-08 -3.098693E-09
       606   5  5.495489E-05  9.000029E+00 -1.048379E-07  7.997606E-06  1.604467E-08  3.825363E-09
       606   6  6.086973E-05  9.000030E+00 -8.012239E-08  6.755509E-06  4.612414E-08 -8.558557E-10
       606   7  4.706700E-05  9.000028E+00  1.793097E-07  5.831239E-06 -1.769544E-08  2.481656E-08
       606   8  5.337754E-05  9.000030E+00 -7.699409E-09  4.968696E-06  1.182056E-08  3.225875E-08
       606   9  5.949664E-05  9.000031E+00  4.506371E-08  4.230567E-06  4.133656E-08  2.809567E-08
       606  10  5.175035E-05  9.000027E+00  1.262249E-07  1.285365E-05 -3.071687E-16  6.141727E-15
       606  11  5.771940E-05  9.000028E+00  8.195789E-09  1.098711E-05 -2.076975E-15 -1.600345E-15
       606  12  6.347379E-05  9.000029E+00  7.578091E-08  9.244971E-06 -2.286498E-15  1.294182E-14
       606  13  4.894968E-05  9.000027E+00  5.634412E-08  9.320141E-06 -1.149959E-15  4.767458E-15
       606  14  5.509104E-05  9.000029E+00 -1.081709E-07  7.957560E-06 -8.954338E-16 -1.424630E-15
       606  15  6.102935E-05  9.000030E+00 -5.999261E-08  6.719392E-06  1.450577E-16  8.997925E-15
       606  16  4.718656E-05  9.000028E+00  1.554610E-07  5.795085E-06 -5.613737E-16  2.318905E-15
       606  17  5.352057E-05  9.000030E+00 -8.085332E-09  4.936471E-06 -5.822891E-16 -9.368059E-15
       606  18  5.966313E-05  9.000031E+00  6.814054E-08  4.202272E-06  6.287201E-17 -6.805733E-16
       606  19  5.164454E-05  9.000027E+00  1.559677E-07  1.290545E-05  2.054299E-08  3.101395E-08
       606  20  5.759012E-05  9.000029E+00  1.447583E-08  1.103497E-05 -1.009996E-08  2.460801E-08
       606  21  6.332105E-05  9.000029E+00  5.859817E-08  9.288909E-06 -4.074292E-08  2.980740E-08
       606  22  4.883699E-05  9.000028E+00  8.313987E-08  9.364116E-06  1.403480E-08  3.098708E-09
       606  23  5.495489E-05  9.000029E+00 -1.048379E-07  7.997606E-06 -1.604467E-08 -3.825364E-09
       606  24  6.086973E-05  9.000030E+00 -8.012240E-08  6.755509E-06 -4.612416E-08  8.558619E-10
       606  25  4.706700E-05  9.000028E+00  1.793097E-07  5.831239E-06  1.769544E-08 -2.481656E-08
       606  26  5.337754E-05  9.000030E+00 -7.699382E-09  4.968696E-06 -1.182057E-08 -3.225874E-08
       606  27  5.949664E-05  9.000031E+00  4.506375E-08  4.230567E-06 -4.133656E-08 -2.809567E-08
       607   1  6.607109E-05  9.000029E+00  1.365833E-07  7.987615E-06 -6.591655E-08 -3.100266E-08
       607   2  6.896958E-05  9.000028E+00 -3.192716E-08  5.755050E-06  2.802425E-09 -2.622074E-08
       607   3  7.209063E-05  9.000028E+00  1.098058E-07  3.615581E-06  7.152142E-08 -2.732721E-08
       607   4  6.386676E-05  9.000030E+00  5.525161E-08  5.822157E-06 -6.500428E-08 -2.105688E-09
       607   5  6.687902E-05  9.000029E+00 -1.398532E-07  4.181484E-06  5.932937E-09  1.970702E-09
       607   6  7.011971E-05  9.000029E+00 -1.097496E-08  2.633909E-06  7.687016E-08  1.586722E-10
       607   7  6.251179E-05  9.000031E+00  1.569687E-07  3.652127E-06 -6.946575E-08  2.679131E-08
       607   8  6.564855E-05  9.000030E+00 -3.965299E-08  2.603347E-06  3.689715E-09  3.016215E-08
       607   9  6.901964E-05  9.000030E+00  1.014480E-07  1.647665E-06  7.684516E-08  2.764459E-08
       607  10  6.613007E-05  9.000029E+00  1.193652E-07  7.960391E-06 -2.544459E-15  1.605164E-14
       607  11  6.903986E-05  9.000028E+00 -3.784813E-08  5.731697E-06 -5.090533E-15 -4.313584E-16
       607  12  7.217220E-05  9.000028E+00  1.151820E-07  3.596101E-06 -1.405875E-15 -2.291081E-15
       607  13  6.393252E-05  9.000030E+00  4.093734E-08  5.798698E-06  1.417637E-15  6.303754E-15
       607  14  6.695607E-05  9.000029E+00 -1.428703E-07  4.161898E-06  2.886561E-15  3.830931E-16
       607  15  7.020806E-05  9.000029E+00 -2.694846E-09  2.618194E-06  1.224629E-15  2.696125E-15
       607  16  6.258433E-05  9.000031E+00  1.455583E-07  3.632434E-06  4.577404E-15  1.437287E-15
       607  17  6.573238E-05  9.000030E+00 -3.976617E-08  2.587526E-06  2.832442E-15 -5.450288E-15
       607  18  6.911477E-05  9.000030E+00  1.126320E-07  1.635716E-06  3.434062E-16  5.410549E-16
       607  19  6.607109E-05  9.000029E+00  1.365833E-07  7.987615E-06  6.591654E-08  3.100270E-08
       607  20  6.896958E-05  9.000028E+00 -3.192715E-08  5.755050E-06 -2.802440E-09  2.622074E-08
       607  21  7.209063E-05  9.000028E+00  1.098058E-07  3.615581E-06 -7.152142E-08  2.732722E-08
       607  22  6.386676E-05  9.000030E+00  5.525161E-08  5.822157E-06  6.500428E-08  2.105711E-09
       607  23  6.687902E-05  9.000029E+00 -1.398532E-07  4.181484E-06 -5.932944E-09 -1.970700E-09
       607  24  7.011971E-05  9.000029E+00 -1.097496E-08  2.633909E-06 -7.687016E-08 -1.586876E-10
       607  25  6.251179E-05  9.000031E+00  1.569687E-07  3.652127E-06  6.946575E-08 -2.679130E-08
       607  26  6.564855E-05  9.000030E+00 -3.965296E-08  2.603347E-06 -3.689699E-09 -3.016214E-08
       607  27  6.901964E-05  9.000030E+00  1.014480E-07  1.647665E-06 -7.684516E-08 -2.764459E-08
       608   1  7.299871E-05  9.000028E+00  1.278002E-07  2.239703E-06 -7.796548E-08 -2.756233E-08
       608   2  7.282742E-05  9.000028E+00 -4.094040E-08 -1.200048E-14  2.291438E-15 -2.577294E-08
       608   3  7.299871E-05  9.000028E+00  1.278002E-07 -2.239704E-06  7.796548E-08 -2.756232E-08
       608   4  7.111819E-05  9.000029E+00  2.693566E-08  1.636030E-06 -8.117570E-08 -2.817448E-10
       608   5  7.094512E-05  9.000028E+00 -1.459802E-07 -7.660965E-15 -3.721627E-15  1.507635E-09
       608   6  7.111819E-05  9.000029E+00  2.693568E-08 -1.636030E-06  8.117570E-08 -2.817481E-10
       608   7  7.002167E-05  9.000030E+00  1.280059E-07  1.032356E-06 -8.438592E-08  2.699886E-08
       608   8  6.984680E-05  9.000029E+00 -4.908520E-08 -1.817252E-14 -2.169171E-15  2.878822E-08
       608   9  7.002167E-05  9.000030E+00  1.280058E-07 -1.032356E-06  8.438592E-08  2.699885E-08
       608  10  7.305004E-05  9.000028E+00  1.220937E-07  2.235954E-06 -1.411893E-15  4.256464E-15
       608  11  7.287876E-05  9.000028E+00 -4.664696E-08 -1.505469E-14  1.080246E-15  2.676084E-15
       608  12  7.305004E-05  9.000028E+00  1.220937E-07 -2.235954E-06  2.057558E-15 -5.698638E-15
       608  13  7.117609E-05  9.000029E+00  2.404140E-08  1.632280E-06  2.116900E-16  1.405998E-15
       608  14  7.100302E-05  9.000028E+00 -1.488744E-07 -7.075576E-15  1.026146E-15  4.763124E-15
       608  15  7.117609E-05  9.000029E+00  2.404141E-08 -1.632280E-06  1.369744E-15  1.233178E-15
       608  16  7.008613E-05  9.000030E+00  1.279238E-07  1.028606E-06  4.451302E-16  2.571586E-15
       608  17  6.991126E-05  9.000029E+00 -4.916719E-08 -1.191140E-14  4.273486E-15 -1.426582E-15
       608  18  7.008613E-05  9.000030E+00  1.279239E-07 -1.028606E-06  4.425367E-15 -1.441206E-15
       608  19  7.299871E-05  9.000028E+00  1.278003E-07  2.239703E-06  7.796547E-08  2.756234E-08
       608  20  7.282742E-05  9.000028E+00 -4.094038E-08 -2.708698E-14 -8.423040E-16  2.577295E-08
       608  21  7.299871E-05  9.000028E+00  1.278003E-07 -2.239704E-06 -7.796547E-08  2.756232E-08
       608  22  7.111819E-05  9.000029E+00  2.693566E-08  1.636030E-06  8.117570E-08  2.817552E-10
       608  23  7.094512E-05  9.000028E+00 -1.459802E-07 -1.068972E-14 -1.615498E-15 -1.507628E-09
       608  24  7.111819E-05  9.000029E+00  2.693569E-08 -1.636030E-06 -8.117570E-08  2.817319E-10
       608  25  7.002167E-05  9.000030E+00  1.280059E-07  1.032356E-06  8.438592E-08 -2.699885E-08
       608  26  6.984680E-05  9.000029E+00 -4.908519E-08 -1.707810E-14 -6.834271E-16 -2.878821E-08
       608  27  7.002167E-05  9.000030E+00  1.280059E-07 -1.032356E-06 -8.438592E-08 -2.699885E-08
       609   1  7.209063E-05  9.000028E+00  1.098058E-07 -3.615581E-06 -7.152142E-08 -2.732721E-08
       609   2  6.896958E-05  9.000028E+00 -3.192716E-08 -5.755050E-06 -2.802428E-09 -2.622073E-08
       609   3  6.607109E-05  9.000029E+00  1.365833E-07 -7.987615E-06  6.591655E-08 -3.100267E-08
       609   4  7.011971E-05  9.000029E+00 -1.097496E-08 -2.633909E-06 -7.687016E-08  1.586829E-10
       609   5  6.687902E-05  9.000029E+00 -1.398532E-07 -4.181484E-06 -5.932939E-09  1.970707E-09
       609   6  6.386676E-05  9.000030E+00  5.525160E-08 -5.822157E-06  6.500427E-08 -2.105694E-09
       609   7  6.901964E-05  9.000030E+00  1.014480E-07 -1.647665E-06 -7.684515E-08  2.764458E-08
       609   8  6.564855E-05  9.000030E+00 -3.965296E-08 -2.603347E-06 -3.689700E-09  3.016215E-08
       609   9  6.251179E-05  9.000031E+00  1.569687E-07 -3.652127E-06  6.946574E-08  2.679131E-08
       609  10  7.217220E-05  9.000028E+00  1.151820E-07 -3.596101E-06  2.213226E-15 -3.607681E-15
       609  11  6.903986E-05  9.000028E+00 -3.784814E-08 -5.731697E-06  5.088657E-15  4.895710E-15
       609  12  6.613007E-05  9.000029E+00  1.193652E-07 -7.960391E-06  5.038706E-16  5.230365E-15
       609  13  7.020806E-05  9.000029E+00 -2.694859E-09 -2.618194E-06 -2.960322E-16 -3.480297E-15
       609  14  6.695607E-05  9.000029E+00 -1.428703E-07 -4.161898E-06  2.413962E-15  4.793902E-15
       609  15  6.393252E-05  9.000030E+00  4.093735E-08 -5.798698E-06  9.183669E-16  8.242618E-15
       609  16  6.911477E-05  9.000030E+00  1.126320E-07 -1.635716E-06  1.870542E-15 -2.340160E-15
       609  17  6.573238E-05  9.000030E+00 -3.976617E-08 -2.587526E-06  6.167449E-16 -5.620788E-15
       609  18  6.258433E-05  9.000031E+00  1.455583E-07 -3.632434E-06 -3.053606E-15  1.381427E-15
       609  19  7.209063E-05  9.000028E+00  1.098058E-07 -3.615581E-06  7.152143E-08  2.732720E-08
       609  20  6.896958E-05  9.000028E+00 -3.192716E-08 -5.755050E-06  2.802429E-09  2.622074E-08
       609  21  6.607109E-05  9.000029E+00  1.365833E-07 -7.987615E-06 -6.591656E-08  3.100269E-08
       609  22  7.011971E-05  9.000029E+00 -1.097494E-08 -2.633909E-06  7.687016E-08 -1.586852E-10
       609  23  6.687902E-05  9.000029E+00 -1.398532E-07 -4.181484E-06  5.932935E-09 -1.970699E-09
       609  24  6.386676E-05  9.000030E+00  5.525161E-08 -5.822157E-06 -6.500427E-08  2.105694E-09
       609  25  6.901964E-05  9.000030E+00  1.014481E-07 -1.647665E-06  7.684515E-08 -2.764459E-08
       609  26  6.564855E-05  9.000030E+00 -3.965297E-08 -2.603347E-06  3.689693E-09 -3.016214E-08
       609  27  6.251179E-05  9.000031E+00  1.569687E-07 -3.652127E-06 -6.946574E-08 -2.679130E-08
       610   1  6.332105E-05  9.000029E+00  5.859816E-08 -9.288909E-06 -4.074291E-08 -2.980738E-08
       610   2  5.759012E-05  9.000029E+00  1.447582E-08 -1.103497E-05 -1.009996E-08 -2.460801E-08
       610   3  5.164454E-05  9.000027E+00  1.559677E-07 -1.290545E-05  2.054299E-08 -3.101391E-08
       610   4  6.086973E-05  9.000030E+00 -8.012240E-08 -6.755509E-06 -4.612415E-08 -8.558570E-10
       610   5  5.495489E-05  9.000029E+00 -1.048379E-07 -7.997606E-06 -1.604468E-08  3.825366E-09
       610   6  4.883699E-05  9.000028E+00  8.313988E-08 -9.364116E-06  1.403479E-08 -3.098691E-09
       610   7  5.949664E-05  9.000031E+00  4.506373E-08 -4.230567E-06 -4.133657E-08  2.809568E-08
       610   8  5.337754E-05  9.000030E+00 -7.699395E-09 -4.968696E-06 -1.182057E-08  3.225876E-08
       610   9  4.706700E-05  9.000028E+00  1.793097E-07 -5.831240E-06  1.769544E-08  2.481656E-08
       610  10  6.347379E-05  9.000029E+00  7.578092E-08 -9.244971E-06 -1.777015E-16  1.752824E-15
       610  11  5.771940E-05  9.000028E+00  8.195788E-09 -1.098711E-05  7.450543E-15 -1.334601E-15
       610  12  5.175035E-05  9.000027E+00  1.262249E-07 -1.285365E-05  7.862012E-15  6.968879E-15
       610  13  6.102935E-05  9.000030E+00 -5.999262E-08 -6.719392E-06  1.881939E-15  7.603323E-16
       610  14  5.509104E-05  9.000029E+00 -1.081709E-07 -7.957560E-06  1.946166E-15  2.943077E-16
       610  15  4.894968E-05  9.000027E+00  5.634412E-08 -9.320141E-06  5.066425E-15  7.099703E-15
       610  16  5.966313E-05  9.000031E+00  6.814055E-08 -4.202272E-06 -2.356525E-15  5.769802E-16
       610  17  5.352057E-05  9.000030E+00 -8.085334E-09 -4.936471E-06  8.624793E-17 -7.778826E-15
       610  18  4.718656E-05  9.000028E+00  1.554610E-07 -5.795085E-06  1.751053E-15 -9.014294E-16
       610  19  6.332105E-05  9.000029E+00  5.859818E-08 -9.288909E-06  4.074291E-08  2.980739E-08
       610  20  5.759012E-05  9.000029E+00  1.447584E-08 -1.103497E-05  1.009997E-08  2.460800E-08
       610  21  5.164454E-05  9.000027E+00  1.559677E-07 -1.290545E-05 -2.054296E-08  3.101394E-08
       610  22  6.086973E-05  9.000030E+00 -8.012241E-08 -6.755509E-06  4.612415E-08  8.558682E-10
       610  23  5.495489E-05  9.000029E+00 -1.048379E-07 -7.997606E-06  1.604467E-08 -3.825371E-09
       610  24  4.883699E-05  9.000028E+00  8.313987E-08 -9.364116E-06 -1.403478E-08  3.098685E-09
       610  25  5.949664E-05  9.000031E+00  4.506374E-08 -4.230567E-06  4.133657E-08 -2.809568E-08
       610  26  5.337754E-05  9.000030E+00 -7.699389E-09 -4.968696E-06  1.182057E-08 -3.225875E-08
       610  27  4.706700E-05  9.000028E+00  1.793097E-07 -5.831239E-06 -1.769544E-08 -2.481656E-08
       611   1  4.709422E-05  9.000026E+00 -8.303707E-08 -1.375123E-05  3.705168E-08 -2.983257E-08
       611   2  3.997039E-05  9.000021E+00  8.984969E-08 -1.418479E-05 -2.200732E-08 -1.819450E-08
       611   3  3.166991E-05  9.000012E+00  9.070673E-08 -1.464330E-05 -8.106630E-08 -1.634530E-08
       611   4  4.405217E-05  9.000026E+00 -1.989718E-07 -9.953589E-06  3.307767E-08 -3.569771E-09
       611   5  3.682796E-05  9.000021E+00  5.564432E-09 -1.024380E-05 -2.942815E-08  2.907889E-09
       611   6  2.843689E-05  9.000012E+00  6.091170E-08 -1.055897E-05 -9.193397E-08 -4.033453E-10
       611   7  4.222905E-05  9.000026E+00 -9.314111E-08 -6.201626E-06  4.145527E-08  2.269305E-08
       611   8  3.487975E-05  9.000021E+00  8.540390E-08 -6.348486E-06 -2.449742E-08  2.401028E-08
       611   9  2.637338E-05  9.000012E+00  1.376007E-07 -6.520301E-06 -9.045008E-08  1.553863E-08
       611  10  4.736315E-05  9.000025E+00 -5.236184E-08 -1.368681E-05  8.667912E-15  7.233598E-15
       611  11  4.020572E-05  9.000021E+00  8.692841E-08 -1.411929E-05  8.123735E-15  4.696250E-16
       611  12  3.187165E-05  9.000012E+00  5.418894E-08 -1.457672E-05  7.815135E-16  1.682981E-14
       611  13  4.432300E-05  9.000026E+00 -1.674823E-07 -9.900377E-06  4.416454E-15  3.085092E-15
       611  14  3.706519E-05  9.000021E+00  3.457446E-09 -1.018950E-05  5.727800E-15  4.134676E-15
       611  15  2.864052E-05  9.000012E+00  2.520818E-08 -1.050358E-05  8.154808E-15  1.756902E-14
       611  16  4.250177E-05  9.000026E+00 -6.083733E-08 -6.159613E-06  1.285443E-15  3.565724E-16
       611  17  3.511888E-05  9.000021E+00  8.411120E-08 -6.305387E-06  7.266612E-15 -3.734844E-15
       611  18  2.657892E-05  9.000012E+00  1.027115E-07 -6.476117E-06  1.034035E-14  6.516128E-15
       611  19  4.709422E-05  9.000026E+00 -8.303706E-08 -1.375123E-05 -3.705165E-08  2.983259E-08
       611  20  3.997039E-05  9.000021E+00  8.984971E-08 -1.418479E-05  2.200734E-08  1.819449E-08
       611  21  3.166991E-05  9.000012E+00  9.070673E-08 -1.464330E-05  8.106631E-08  1.634534E-08
       611  22  4.405217E-05  9.000026E+00 -1.989718E-07 -9.953589E-06 -3.307766E-08  3.569780E-09
       611  23  3.682796E-05  9.000021E+00  5.564442E-09 -1.024380E-05  2.942817E-08 -2.907881E-09
       611  24  2.843689E-05  9.000012E+00  6.091167E-08 -1.055897E-05  9.193399E-08  4.033652E-10
       611  25  4.222905E-05  9.000026E+00 -9.314111E-08 -6.201626E-06 -4.145526E-08 -2.269305E-08
       611  26  3.487975E-05  9.000021E+00  8.540391E-08 -6.348486E-06  2.449743E-08 -2.401026E-08
       611  27  2.637338E-05  9.000012E+00  1.376007E-07 -6.520301E-06  9.045010E-08 -1.553861E-08
       612   1  2.623991E-05  9.000006E+00 -3.375161E-07 -1.420986E-05  1.617267E-07 -1.636306E-08
       612   2  2.081819E-05  8.999990E+00  2.757580E-07 -1.219372E-05 -2.875376E-08 -2.210790E-09
       612   3  1.277375E-05  8.999967E+00  4.990161E-08 -1.007236E-05 -2.192343E-07  2.703649E-08
       612   4  2.301222E-05  9.000005E+00 -3.389543E-07 -1.021451E-05  1.606009E-07 -4.811947E-09
       612   5  1.756466E-05  8.999989E+00  2.289210E-07 -8.753471E-06 -3.015912E-08 -5.883723E-10
       612   6  9.479279E-06  8.999966E+00 -7.755583E-08 -7.187215E-06 -2.209191E-07  1.873021E-08
       612   7  2.090456E-05  9.000005E+00 -2.771139E-07 -6.310563E-06  1.669666E-07  6.739175E-09
       612   8  1.541618E-05  8.999989E+00  2.104021E-07 -5.404630E-06 -2.407290E-08  1.034054E-09
       612   9  7.274874E-06  8.999965E+00 -2.116558E-07 -4.393478E-06 -2.151124E-07  1.042396E-08
       612  10  2.663463E-05  9.000005E+00 -3.015724E-07 -1.415157E-05  4.590223E-17  1.943573E-14
       612  11  2.118489E-05  8.999990E+00  2.836759E-07 -1.214130E-05 -5.212320E-15  4.682394E-15
       612  12  1.311242E-05  8.999967E+00  2.979373E-08 -1.002581E-05  4.846591E-15  4.488647E-15
       612  13  2.339667E-05  9.000005E+00 -3.074133E-07 -1.016556E-05  9.080884E-15  1.365830E-14
       612  14  1.792108E-05  8.999989E+00  2.324362E-07 -8.710395E-06  5.671512E-15  4.987798E-15
       612  15  9.807675E-06  8.999965E+00 -1.020664E-07 -7.150009E-06  6.095080E-15  5.749642E-15
       612  16  2.127874E-05  9.000005E+00 -2.499755E-07 -6.270960E-06  1.252487E-14  6.552109E-15
       612  17  1.576233E-05  8.999988E+00  2.095147E-07 -5.370896E-06  1.002759E-14 -4.714226E-15
       612  18  7.592998E-06  8.999964E+00 -2.405691E-07 -4.365615E-06  7.896455E-15  1.708693E-15
       612  19  2.623991E-05  9.000006E+00 -3.375161E-07 -1.420986E-05 -1.617267E-07  1.636310E-08
       612  20  2.081819E-05  8.999990E+00  2.757580E-07 -1.219372E-05  2.875376E-08  2.210798E-09
       612  21  1.277375E-05  8.999967E+00  4.990163E-08 -1.007236E-05  2.192343E-07 -2.703648E-08
       612  22  2.301222E-05  9.000005E+00 -3.389543E-07 -1.021451E-05 -1.606009E-07  4.811985E-09
       612  23  1.756466E-05  8.999989E+00  2.289210E-07 -8.753471E-06  3.015913E-08  5.883826E-10
       612  24  9.479279E-06  8.999966E+00 -7.755583E-08 -7.187215E-06  2.209191E-07 -1.873022E-08
       612  25  2.090456E-05  9.000005E+00 -2.771138E-07 -6.310563E-06 -1.669666E-07 -6.739160E-09
       612  26  1.541618E-05  8.999989E+00  2.104021E-07 -5.404630E-06  2.407291E-08 -1.034042E-09
       612  27  7.274874E-06  8.999965E+00 -2.116558E-07 -4.393478E-06  2.151124E-07 -1.042396E-08
       613   1  9.182912E-06  8.999950E+00 -3.157543E-07 -7.859666E-06  2.494785E-07  1.673017E-08
       613   2  8.234180E-06  8.999916E+00  5.618430E-08 -4.578109E-06  2.446820E-08 -2.683695E-08
       613   3  4.022441E-06  8.999871E+00 -7.344388E-07 -1.411711E-06 -2.005421E-07 -2.262452E-08
       613   4  6.196147E-06  8.999949E+00 -2.730421E-07 -5.683338E-06  2.428409E-07  7.456128E-09
       613   5  5.290297E-06  8.999915E+00  2.717666E-07 -3.352410E-06  2.119754E-08 -2.950799E-08
       613   6  1.073661E-06  8.999871E+00 -4.574720E-07 -1.136642E-06 -2.004458E-07 -1.869256E-08
       613   7  4.115751E-06  8.999948E+00 -3.226372E-07 -3.429246E-06  2.349696E-07 -1.817886E-09
       613   8  3.255251E-06  8.999914E+00  4.007989E-07 -2.048948E-06  1.669316E-08 -3.217902E-08
       613   9 -9.638150E-07  8.999871E+00 -2.612978E-07 -7.838097E-07 -2.015833E-07 -1.476059E-08
       613  10  9.627022E-06  8.999950E+00 -2.936368E-07 -7.864145E-06  3.235719E-15  8.141300E-15
       613  11  8.688494E-06  8.999915E+00  8.850597E-08 -4.597980E-06 -5.363328E-15  5.473827E-16
       613  12  4.486959E-06  8.999871E+00 -6.919129E-07 -1.446974E-06 -9.079274E-15 -6.510814E-15
       613  13  6.613321E-06  8.999949E+00 -2.624687E-07 -5.684416E-06  5.186724E-15  2.694776E-15
       613  14  5.717675E-06  8.999915E+00  2.925442E-07 -3.368880E-06  1.368949E-15  3.184536E-15
       613  15  1.511243E-06  8.999871E+00 -4.264902E-07 -1.168504E-06  2.411275E-15  9.832467E-16
       613  16  4.505988E-06  8.999948E+00 -3.236079E-07 -3.426922E-06  5.426357E-15  3.198611E-15
       613  17  3.655692E-06  8.999914E+00  4.100324E-07 -2.062016E-06 -2.319444E-15 -5.387750E-15
       613  18 -5.531691E-07  8.999870E+00 -2.418601E-07 -8.122703E-07 -3.365856E-15 -5.116714E-15
       613  19  9.182912E-06  8.999950E+00 -3.157542E-07 -7.859666E-06 -2.494785E-07 -1.673014E-08
       613  20  8.234180E-06  8.999916E+00  5.618431E-08 -4.578109E-06 -2.446821E-08  2.683696E-08
       613  21  4.022441E-06  8.999871E+00 -7.344387E-07 -1.411711E-06  2.005421E-07  2.262452E-08
       613  22  6.196147E-06  8.999949E+00 -2.730421E-07 -5.683338E-06 -2.428409E-07 -7.456116E-09
       613  23  5.290297E-06  8.999915E+00  2.717666E-07 -3.352410E-06 -2.119756E-08  2.950800E-08
       613  24  1.073661E-06  8.999871E+00 -4.574720E-07 -1.136642E-06  2.004458E-07  1.869255E-08
       613  25  4.115751E-06  8.999948E+00 -3.226372E-07 -3.429246E-06 -2.349696E-07  1.817891E-09
       613  26  3.255251E-06  8.999914E+00  4.007989E-07 -2.048948E-06 -1.669316E-08  3.217903E-08
       613  27 -9.638150E-07  8.999871E+00 -2.612979E-07 -7.838097E-07  2.015832E-07  1.476058E-08
       614   1  5.917863E-06  8.999844E+00  3.589961E-07 -3.532551E-07  9.583397E-08  3.443521E-10
       614   2  5.826604E-06  8.999791E+00  4.039703E-07 -6.935489E-07  4.157883E-08  1.999883E-08
       614   3  4.363791E-06  8.999734E+00  3.022053E-07 -8.761998E-07 -1.267633E-08  2.125886E-09
       614   4  1.927903E-06  8.999843E+00  1.221409E-07 -3.312063E-07  1.197301E-07  8.933700E-09
       614   5  2.032857E-06  8.999790E+00  6.029581E-08 -4.191610E-07  3.345762E-08  3.799026E-08
       614   6  8.037843E-07  8.999733E+00 -6.072453E-08 -3.494729E-07 -5.281488E-08  2.951938E-08
       614   7 -5.261135E-07  8.999842E+00  8.339355E-08 -2.993641E-07  1.347587E-07  1.752306E-08
       614   8 -2.072112E-07  8.999790E+00 -4.388897E-08 -1.349799E-07  1.646888E-08  5.598169E-08
       614   9 -1.184809E-06  8.999733E+00 -1.427827E-07  1.870473E-07 -1.018210E-07  5.691291E-08
       614  10  6.187376E-06  8.999843E+00  3.247220E-07 -4.201057E-07 -5.692992E-15 -3.824279E-15
       614  11  6.126647E-06  8.999791E+00  4.002255E-07 -7.703397E-07 -1.029913E-14  7.340080E-16
       614  12  4.694363E-06  8.999733E+00  3.289898E-07 -9.629310E-07 -4.460982E-15  2.493826E-15
       614  13  2.180021E-06  8.999842E+00  8.041161E-08 -3.878805E-07 -6.191001E-15 -3.788757E-15
       614  14  2.315505E-06  8.999790E+00  4.909582E-08 -4.857754E-07 -1.070809E-14  1.344931E-15
       614  15  1.116961E-06  8.999733E+00 -4.139520E-08 -4.260276E-07 -1.015242E-14  2.349997E-15
       614  16 -2.913904E-07  8.999842E+00  3.420904E-08 -3.458619E-07 -7.306577E-15 -4.694558E-15
       614  17  5.804126E-08  8.999790E+00 -6.254411E-08 -1.914178E-07 -4.307495E-15 -6.728158E-15
       614  18 -8.890271E-07  8.999733E+00 -1.309085E-07  1.206690E-07 -7.315514E-15  1.215545E-15
       614  19  5.917863E-06  8.999844E+00  3.589962E-07 -3.532551E-07 -9.583398E-08 -3.443592E-10
       614  20  5.826604E-06  8.999791E+00  4.039703E-07 -6.935489E-07 -4.157883E-08 -1.999883E-08
       614  21  4.363791E-06  8.999734E+00  3.022053E-07 -8.761998E-07  1.267630E-08 -2.125872E-09
       614  22  1.927903E-06  8.999843E+00  1.221409E-07 -3.312062E-07 -1.197301E-07 -8.933703E-09
       614  23  2.032857E-06  8.999790E+00  6.029579E-08 -4.191610E-07 -3.345763E-08 -3.799025E-08
       614  24  8.037843E-07  8.999733E+00 -6.072456E-08 -3.494729E-07  5.281486E-08 -2.951939E-08
       614  25 -5.261134E-07  8.999842E+00  8.339356E-08 -2.993641E-07 -1.347587E-07 -1.752307E-08
       614  26 -2.072112E-07  8.999790E+00 -4.388896E-08 -1.349798E-07 -1.646886E-08 -5.598168E-08
       614  27 -1.184809E-06  8.999733E+00 -1.427827E-07  1.870473E-07  1.018210E-07 -5.691290E-08
       615   1  2.003855E-06  8.999698E+00 -4.932834E-07 -5.262954E-07  2.086309E-07 -5.968154E-08
       615   2  1.293183E-06  8.999635E+00 -3.009491E-07  3.500305E-08  1.642786E-08 -7.004747E-08
       615   3 -3.082038E-07  8.999569E+00  3.846199E-07  1.158738E-06 -1.757752E-07  1.673614E-07
       615   4  2.901996E-07  8.999698E+00 -1.179497E-07 -8.614176E-09  1.570770E-07 -3.559222E-08
       615   5  2.896472E-07  8.999636E+00 -3.487024E-08  2.383976E-07  3.518332E-08 -6.671503E-08
       615   6 -8.493952E-07  8.999569E+00 -3.669719E-08  1.047846E-06 -8.671044E-08  1.499370E-07
       615   7 -1.025227E-06  8.999698E+00  9.123033E-08  4.819196E-07  6.408332E-08 -1.150288E-08
       615   8 -2.327806E-07  8.999636E+00  2.584408E-07  4.146448E-07  1.249898E-08 -6.338257E-08
       615   9 -8.265990E-07  8.999570E+00 -2.373963E-07  9.098068E-07 -3.908539E-08  1.325125E-07
       615  10  2.260915E-06  8.999698E+00 -4.813063E-07 -6.824574E-07 -3.635879E-15 -2.677734E-15
       615  11  1.620132E-06  8.999635E+00 -2.190839E-07 -1.613425E-07 -3.858898E-15 -1.135136E-14
       615  12  8.863317E-08  8.999570E+00  5.363732E-07  9.222094E-07 -2.597406E-14 -9.731715E-16
       615  13  4.769392E-07  8.999698E+00 -1.361102E-07 -1.414801E-07 -4.930579E-15 -7.029909E-15
       615  14  5.462750E-07  8.999636E+00  1.685738E-08  6.534821E-08 -2.918628E-15 -7.982008E-15
       615  15 -5.228794E-07  8.999569E+00  8.491852E-08  8.346134E-07 -2.769523E-14  6.770174E-15
       615  16 -9.088086E-07  8.999698E+00  4.293224E-08  3.723497E-07 -1.723196E-15 -2.835544E-15
       615  17 -4.647403E-08  8.999636E+00  2.800308E-07  2.648914E-07  2.189724E-15 -1.413038E-14
       615  18 -5.704044E-07  8.999570E+00 -1.459182E-07  7.198699E-07 -2.504289E-14  1.808113E-15
       615  19  2.003855E-06  8.999698E+00 -4.932834E-07 -5.262955E-07 -2.086309E-07  5.968153E-08
       615  20  1.293183E-06  8.999635E+00 -3.009491E-07  3.500301E-08 -1.642788E-08  7.004745E-08
       615  21 -3.082039E-07  8.999569E+00  3.846199E-07  1.158738E-06  1.757752E-07 -1.673614E-07
       615  22  2.901996E-07  8.999698E+00 -1.179497E-07 -8.614202E-09 -1.570770E-07  3.559221E-08
       615  23  2.896472E-07  8.999636E+00 -3.487025E-08  2.383977E-07 -3.518331E-08  6.671501E-08
       615  24 -8.493953E-07  8.999569E+00 -3.669722E-08  1.047846E-06  8.671036E-08 -1.499370E-07
       615  25 -1.025227E-06  8.999698E+00  9.123041E-08  4.819196E-07 -6.408330E-08  1.150287E-08
       615  26 -2.327806E-07  8.999636E+00  2.584408E-07  4.146448E-07 -1.249898E-08  6.338257E-08
       615  27 -8.265991E-07  8.999570E+00 -2.373963E-07  9.098068E-07  3.908536E-08 -1.325125E-07
       701   1 -4.237375E-07  8.999571E+00  9.048293E-08 -4.357318E-07  1.785792E-08  1.135977E-08
       701   2 -8.029374E-07  8.999635E+00 -6.463666E-08 -3.358702E-07 -1.326678E-08 -4.039860E-10
       701   3 -1.643631E-06  8.999698E+00 -5.416753E-08 -2.360086E-07 -4.439148E-08 -1.216772E-08
       701   4 -6.257933E-07  8.999570E+00 -2.974675E-08  2.173576E-14 -4.871205E-09 -1.724099E-14
       701   5 -9.595350E-07  8.999635E+00 -7.879715E-08  5.339769E-14 -3.599592E-08 -4.435731E-16
       701   6 -1.754771E-06  8.999698E+00  3.774117E-08  9.526575E-14 -6.712062E-08  4.357197E-15
       701   7 -4.237375E-07  8.999571E+00  9.048294E-08  4.357318E-07  1.785789E-08 -1.135977E-08
       701   8 -8.029374E-07  8.999635E+00 -6.463666E-08  3.358703E-07 -1.326681E-08  4.039617E-10
       701   9 -1.643631E-06  8.999698E+00 -5.416752E-08  2.360088E-07 -4.439150E-08  1.216773E-08
       701  10 -1.289957E-07  8.999571E+00  2.322013E-07 -4.060495E-07  6.703478E-16 -3.439906E-15
       701  11 -5.972424E-07  8.999635E+00 -1.196507E-08 -3.061879E-07 -5.140313E-15 -7.427319E-15
       701  12 -1.526983E-06  8.999698E+00 -9.054273E-08 -2.063264E-07 -5.770330E-15 -5.954721E-15
       701  13 -3.310515E-07  8.999571E+00  1.119716E-07  1.175869E-14  9.569393E-15 -5.717546E-15
       701  14 -7.538400E-07  8.999635E+00 -2.612556E-08  4.474411E-14  1.418105E-15 -8.779964E-15
       701  15 -1.638122E-06  8.999698E+00  1.365985E-09  7.157021E-14 -4.264367E-15 -2.471394E-15
       701  16 -1.289956E-07  8.999571E+00  2.322013E-07  4.060495E-07  9.921718E-15 -5.174316E-15
       701  17 -5.972424E-07  8.999635E+00 -1.196508E-08  3.061880E-07 -6.395444E-15 -4.088114E-15
       701  18 -1.526983E-06  8.999698E+00 -9.054272E-08  2.063265E-07 -1.198883E-14 -1.746244E-15
       701  19 -4.237375E-07  8.999571E+00  9.048294E-08 -4.357317E-07 -1.785792E-08 -1.135977E-08
       701  20 -8.029374E-07  8.999635E+00 -6.463665E-08 -3.358702E-07  1.326678E-08  4.039677E-10
       701  21 -1.643631E-06  8.999698E+00 -5.416754E-08 -2.360086E-07  4.439147E-08  1.216771E-08
       701  22 -6.257933E-07  8.999570E+00 -2.974674E-08  2.929492E-14  4.871216E-09 -8.479055E-15
       701  23 -9.595351E-07  8.999635E+00 -7.879715E-08  5.377947E-14  3.599591E-08 -1.631272E-14
       701  24 -1.754771E-06  8.999698E+00  3.774118E-08  8.050376E-14  6.712060E-08 -1.549663E-14
       701  25 -4.237375E-07  8.999571E+00  9.048294E-08  4.357318E-07 -1.785787E-08  1.135978E-08
       701  26 -8.029375E-07  8.999635E+00 -6.463668E-08  3.358703E-07  1.326680E-08 -4.039862E-10
       701  27 -1.643631E-06  8.999698E+00 -5.416754E-08  2.360088E-07  4.439149E-08 -1.216774E-08
       702   1 -1.776722E-06  8.999733E+00 -6.303985E-08  2.935267E-08  1.136194E-07 -1.466445E-08
       702   2 -7.178050E-07  8.999790E+00  1.904777E-07  9.154529E-08 -1.398736E-08 -1.148076E-08
       702   3 -1.353633E-06  8.999842E+00  8.869949E-08  1.537380E-07 -1.415941E-07 -8.297050E-09
       702   4 -2.419518E-06  8.999733E+00 -1.669241E-07  8.302348E-14  1.074277E-07 -5.331639E-15
       702   5 -1.348218E-06  8.999790E+00  1.154881E-07  7.912937E-14 -2.017906E-08  1.358479E-15
       702   6 -1.971663E-06  8.999842E+00  4.260440E-08  1.117330E-13 -1.477858E-07 -9.082539E-15
       702   7 -1.776722E-06  8.999733E+00 -6.303988E-08 -2.935250E-08  1.136194E-07  1.466447E-08
       702   8 -7.178050E-07  8.999790E+00  1.904778E-07 -9.154513E-08 -1.398736E-08  1.148074E-08
       702   9 -1.353633E-06  8.999842E+00  8.869950E-08 -1.537377E-07 -1.415941E-07  8.297042E-09
       702  10 -1.471150E-06  8.999733E+00 -3.848364E-08  3.983408E-08 -1.193377E-14 -3.156314E-16
       702  11 -4.436781E-07  8.999790E+00  1.835897E-07  1.020267E-07 -1.751293E-14  9.818775E-16
       702  12 -1.110951E-06  8.999842E+00  5.036715E-08  1.642194E-07 -1.755401E-14 -5.412774E-15
       702  13 -2.113947E-06  8.999733E+00 -1.423678E-07  8.139457E-14 -5.946076E-15 -3.346143E-16
       702  14 -1.074091E-06  8.999790E+00  1.086001E-07  8.903009E-14 -3.784194E-15 -1.439767E-15
       702  15 -1.728981E-06  8.999842E+00  4.272078E-09  9.417133E-14 -1.070032E-14 -6.040914E-15
       702  16 -1.471150E-06  8.999733E+00 -3.848363E-08 -3.983394E-08 -1.131287E-14  1.474994E-15
       702  17 -4.436781E-07  8.999790E+00  1.835897E-07 -1.020265E-07 -2.130028E-15  1.826827E-15
       702  18 -1.110951E-06  8.999842E+00  5.036717E-08 -1.642192E-07 -3.750047E-15 -9.698815E-15
       702  19 -1.776722E-06  8.999733E+00 -6.303987E-08  2.935269E-08 -1.136194E-07  1.466445E-08
       702  20 -7.178050E-07  8.999790E+00  1.904777E-07  9.154533E-08  1.398734E-08  1.148076E-08
       702  21 -1.353633E-06  8.999842E+00  8.869949E-08  1.537380E-07  1.415941E-07  8.297051E-09
       702  22 -2.419518E-06  8.999733E+00 -1.669241E-07  9.032812E-14 -1.074277E-07 -1.025636E-14
       702  23 -1.348218E-06  8.999790E+00  1.154881E-07  1.000761E-13  2.017904E-08 -2.637775E-15
       702  24 -1.971663E-06  8.999842E+00  4.260439E-08  9.977071E-14  1.477858E-07 -6.802459E-15
       702  25 -1.776722E-06  8.999733E+00 -6.303985E-08 -2.935251E-08 -1.136194E-07 -1.466446E-08
       702  26 -7.178050E-07  8.999790E+00  1.904778E-07 -9.154513E-08  1.398735E-08 -1.148075E-08
       702  27 -1.353633E-06  8.999842E+00  8.869947E-08 -1.537378E-07  1.415941E-07 -8.297061E-09
       703   1 -1.893182E-06  8.999870E+00 -4.000286E-07  4.770216E-07  2.016846E-07 -5.268557E-09
       703   2  2.311199E-06  8.999913E+00  2.277504E-07  1.332376E-06 -1.561208E-08  1.955101E-09
       703   3  3.423226E-06  8.999948E+00 -2.823296E-07  2.187730E-06 -2.329087E-07  9.178779E-09
       703   4 -2.355366E-06  8.999870E+00 -3.717018E-07  9.452766E-14  2.009925E-07 -2.206217E-14
       703   5  1.850399E-06  8.999913E+00  2.593069E-07  1.033849E-13 -1.630416E-08 -6.834498E-15
       703   6  2.963810E-06  8.999948E+00 -2.475434E-07  1.330615E-13 -2.336008E-07 -8.943831E-15
       703   7 -1.893182E-06  8.999870E+00 -4.000286E-07 -4.770214E-07  2.016846E-07  5.268542E-09
       703   8  2.311199E-06  8.999913E+00  2.277504E-07 -1.332375E-06 -1.561208E-08 -1.955137E-09
       703   9  3.423226E-06  8.999948E+00 -2.823296E-07 -2.187729E-06 -2.329087E-07 -9.178786E-09
       703  10 -1.477920E-06  8.999870E+00 -3.714965E-07  4.807686E-07 -1.162730E-14 -6.343505E-15
       703  11  2.715219E-06  8.999913E+00  2.450415E-07  1.336123E-06 -7.483221E-15 -6.561512E-15
       703  12  3.816005E-06  8.999947E+00 -2.762795E-07  2.191477E-06 -2.687934E-15 -1.010033E-14
       703  13 -1.940105E-06  8.999870E+00 -3.431697E-07  1.100532E-13 -8.602933E-15 -9.828160E-15
       703  14  2.254419E-06  8.999913E+00  2.765980E-07  1.100532E-13 -4.966372E-15 -8.612211E-15
       703  15  3.356589E-06  8.999947E+00 -2.414933E-07  1.069481E-13 -6.914187E-15 -6.424203E-15
       703  16 -1.477920E-06  8.999870E+00 -3.714965E-07 -4.807684E-07 -5.584634E-15 -1.157757E-14
       703  17  2.715219E-06  8.999913E+00  2.450415E-07 -1.336122E-06 -9.472846E-15 -4.902082E-15
       703  18  3.816005E-06  8.999947E+00 -2.762795E-07 -2.191476E-06 -1.222205E-14 -5.700986E-15
       703  19 -1.893182E-06  8.999870E+00 -4.000286E-07  4.770216E-07 -2.016846E-07  5.268549E-09
       703  20  2.311199E-06  8.999913E+00  2.277504E-07  1.332376E-06  1.561207E-08 -1.955116E-09
       703  21  3.423226E-06  8.999948E+00 -2.823296E-07  2.187730E-06  2.329087E-07 -9.178785E-09
       703  22 -2.355366E-06  8.999870E+00 -3.717018E-07  1.094933E-13 -2.009925E-07 -1.068440E-14
       703  23  1.850399E-06  8.999913E+00  2.593069E-07  1.049629E-13  1.630415E-08 -7.890074E-15
       703  24  2.963810E-06  8.999948E+00 -2.475434E-07  1.007379E-13  2.336008E-07 -8.371234E-15
       703  25 -1.893182E-06  8.999870E+00 -4.000286E-07 -4.770214E-07 -2.016846E-07 -5.268553E-09
       703  26  2.311199E-06  8.999913E+00  2.277504E-07 -1.332375E-06  1.561206E-08  1.955113E-09
       703  27  3.423226E-06  8.999948E+00 -2.823296E-07 -2.187729E-06  2.329087E-07  9.178776E-09
       704   1  6.636257E-06  8.999965E+00 -1.069332E-07  2.784868E-06  2.142154E-07  8.626162E-09
       704   2  1.467965E-05  8.999989E+00  2.324626E-07  3.371511E-06  2.309459E-08 -4.965995E-10
       704   3  2.010510E-05  9.000005E+00 -3.086031E-07  3.958155E-06 -1.680262E-07 -9.619340E-09
       704   4  6.126038E-06  8.999964E+00 -9.681044E-08  1.074826E-13  2.175153E-07 -1.768321E-14
       704   5  1.416283E-05  8.999988E+00  2.271859E-07  8.994635E-14  2.639447E-08  3.508022E-15
       704   6  1.958168E-05  9.000005E+00 -3.292793E-07  9.707283E-14 -1.647263E-07  7.121176E-15
       704   7  6.636257E-06  8.999965E+00 -1.069332E-07 -2.784868E-06  2.142154E-07 -8.626168E-09
       704   8  1.467965E-05  8.999989E+00  2.324626E-07 -3.371511E-06  2.309458E-08  4.965824E-10
       704   9  2.010510E-05  9.000005E+00 -3.086031E-07 -3.958155E-06 -1.680262E-07  9.619362E-09
       704  10  6.960622E-06  8.999964E+00 -1.278970E-07  2.776497E-06 -5.244349E-15 -7.652223E-15
       704  11  1.502913E-05  8.999988E+00  2.366115E-07  3.363141E-06 -4.952413E-15 -2.491235E-15
       704  12  2.047969E-05  9.000005E+00 -2.793417E-07  3.949784E-06 -5.328206E-15  5.451649E-16
       704  13  6.450403E-06  8.999964E+00 -1.177742E-07  1.080171E-13 -5.500433E-15 -6.331872E-15
       704  14  1.451231E-05  8.999988E+00  2.313348E-07  9.081171E-14 -3.677016E-15 -2.593940E-15
       704  15  1.995627E-05  9.000004E+00 -3.000179E-07  8.592498E-14  3.848085E-16  9.634230E-16
       704  16  6.960622E-06  8.999964E+00 -1.278970E-07 -2.776497E-06 -1.496128E-14 -3.380093E-15
       704  17  1.502913E-05  8.999988E+00  2.366114E-07 -3.363140E-06 -7.695575E-15  1.535201E-15
       704  18  2.047969E-05  9.000005E+00 -2.793417E-07 -3.949784E-06  2.099292E-15 -4.790766E-15
       704  19  6.636257E-06  8.999965E+00 -1.069332E-07  2.784868E-06 -2.142154E-07 -8.626173E-09
       704  20  1.467965E-05  8.999989E+00  2.324626E-07  3.371512E-06 -2.309459E-08  4.965938E-10
       704  21  2.010510E-05  9.000005E+00 -3.086032E-07  3.958155E-06  1.680262E-07  9.619356E-09
       704  22  6.126038E-06  8.999964E+00 -9.681043E-08  1.022395E-13 -2.175153E-07 -8.304069E-15
       704  23  1.416283E-05  8.999988E+00  2.271859E-07  9.078625E-14 -2.639448E-08 -5.617086E-15
       704  24  1.958168E-05  9.000005E+00 -3.292793E-07  8.849560E-14  1.647263E-07 -8.918409E-15
       704  25  6.636257E-06  8.999965E+00 -1.069332E-07 -2.784868E-06 -2.142154E-07  8.626175E-09
       704  26  1.467965E-05  8.999989E+00  2.324626E-07 -3.371511E-06 -2.309461E-08 -4.965938E-10
       704  27  2.010510E-05  9.000005E+00 -3.086032E-07 -3.958155E-06  1.680262E-07 -9.619368E-09
       705   1  2.557247E-05  9.000012E+00  1.080173E-07  4.103015E-06  9.135857E-08 -1.397061E-08
       705   2  3.415405E-05  9.000021E+00  9.483031E-08  3.993850E-06  2.440288E-08 -1.980099E-08
       705   3  4.151943E-05  9.000027E+00 -1.000476E-07  3.884686E-06 -4.255281E-08 -2.563134E-08
       705   4  2.499772E-05  9.000012E+00  5.559840E-08  7.953660E-14  9.684909E-08 -5.680303E-15
       705   5  3.356832E-05  9.000021E+00  1.678895E-08  7.190108E-14  2.989340E-08  3.565496E-15
       705   6  4.092272E-05  9.000026E+00 -2.037114E-07  7.177383E-14 -3.706228E-08  4.491344E-15
       705   7  2.557247E-05  9.000012E+00  1.080173E-07 -4.103015E-06  9.135857E-08  1.397063E-08
       705   8  3.415405E-05  9.000021E+00  9.483031E-08 -3.993850E-06  2.440287E-08  1.980098E-08
       705   9  4.151943E-05  9.000027E+00 -1.000476E-07 -3.884686E-06 -4.255281E-08  2.563136E-08
       705  10  2.578044E-05  9.000012E+00  7.524355E-08  4.092593E-06 -2.620180E-15  1.961603E-16
       705  11  3.439328E-05  9.000021E+00  9.332303E-08  3.983428E-06 -1.584835E-15 -4.367241E-15
       705  12  4.178993E-05  9.000026E+00 -7.028841E-08  3.874263E-06  5.907627E-17 -2.096225E-15
       705  13  2.520569E-05  9.000012E+00  2.282462E-08  8.612859E-14 -1.222965E-16 -2.287648E-15
       705  14  3.380756E-05  9.000021E+00  1.528167E-08  7.584610E-14 -2.613530E-15 -4.806014E-15
       705  15  4.119322E-05  9.000026E+00 -1.739522E-07  6.057507E-14 -2.161467E-15 -5.771829E-16
       705  16  2.578044E-05  9.000012E+00  7.524355E-08 -4.092593E-06  2.794023E-15 -5.680589E-15
       705  17  3.439328E-05  9.000021E+00  9.332302E-08 -3.983428E-06 -6.689266E-16 -2.402394E-15
       705  18  4.178993E-05  9.000026E+00 -7.028839E-08 -3.874263E-06  1.174890E-15 -4.409769E-15
       705  19  2.557247E-05  9.000012E+00  1.080173E-07  4.103015E-06 -9.135857E-08  1.397062E-08
       705  20  3.415405E-05  9.000021E+00  9.483032E-08  3.993850E-06 -2.440288E-08  1.980098E-08
       705  21  4.151943E-05  9.000027E+00 -1.000476E-07  3.884686E-06  4.255281E-08  2.563135E-08
       705  22  2.499772E-05  9.000012E+00  5.559839E-08  8.500872E-14 -9.684908E-08 -1.144225E-14
       705  23  3.356832E-05  9.000021E+00  1.678896E-08  7.727140E-14 -2.989340E-08 -9.223989E-15
       705  24  4.092272E-05  9.000026E+00 -2.037114E-07  6.765065E-14  3.706229E-08 -6.810371E-15
       705  25  2.557247E-05  9.000012E+00  1.080173E-07 -4.103015E-06 -9.135856E-08 -1.397062E-08
       705  26  3.415405E-05  9.000021E+00  9.483031E-08 -3.993850E-06 -2.440288E-08 -1.980099E-08
       705  27  4.151943E-05  9.000027E+00 -1.000476E-07 -3.884686E-06  4.255281E-08 -2.563136E-08
       706   1  4.638158E-05  9.000028E+00  1.697249E-07  3.662204E-06 -1.740367E-08 -2.765771E-08
       706   2  5.277390E-05  9.000030E+00  5.095621E-09  3.155946E-06  1.194836E-08 -2.879096E-08
       706   3  5.893866E-05  9.000031E+00  4.863274E-08  2.649687E-06  4.130039E-08 -2.992419E-08
       706   4  4.585071E-05  9.000028E+00  8.275932E-08  6.579267E-14 -1.250308E-08 -8.107813E-15
       706   5  5.223323E-05  9.000030E+00 -1.047394E-07  5.148881E-14  1.684895E-08 -3.023880E-15
       706   6  5.838819E-05  9.000031E+00 -8.407173E-08  5.380492E-14  4.620098E-08 -6.234447E-15
       706   7  4.638158E-05  9.000028E+00  1.697249E-07 -3.662204E-06 -1.740366E-08  2.765772E-08
       706   8  5.277390E-05  9.000030E+00  5.095627E-09 -3.155946E-06  1.194837E-08  2.879093E-08
       706   9  5.893866E-05  9.000031E+00  4.863276E-08 -2.649687E-06  4.130039E-08  2.992418E-08
       706  10  4.649965E-05  9.000028E+00  1.432349E-07  3.654428E-06 -1.617360E-15 -1.013735E-15
       706  11  5.291529E-05  9.000030E+00  1.933140E-09  3.148170E-06 -3.438072E-15 -5.095770E-15
       706  12  5.910339E-05  9.000031E+00  6.879784E-08  2.641911E-06  1.150057E-15 -1.070802E-15
       706  13  4.596878E-05  9.000028E+00  5.626928E-08  6.515638E-14 -1.811453E-15 -2.925305E-15
       706  14  5.237462E-05  9.000030E+00 -1.079019E-07  5.207420E-14 -5.897706E-16 -6.725498E-15
       706  15  5.855292E-05  9.000031E+00 -6.390663E-08  3.858479E-14  3.581279E-15 -1.274438E-15
       706  16  4.649965E-05  9.000028E+00  1.432349E-07 -3.654428E-06  4.096201E-15 -4.568017E-15
       706  17  5.291529E-05  9.000030E+00  1.933133E-09 -3.148170E-06  3.019050E-15 -4.072636E-15
       706  18  5.910339E-05  9.000031E+00  6.879784E-08 -2.641911E-06  2.035292E-15 -4.561486E-15
       706  19  4.638158E-05  9.000028E+00  1.697249E-07  3.662204E-06  1.740367E-08  2.765771E-08
       706  20  5.277390E-05  9.000030E+00  5.095639E-09  3.155946E-06 -1.194836E-08  2.879095E-08
       706  21  5.893866E-05  9.000031E+00  4.863276E-08  2.649687E-06 -4.130039E-08  2.992419E-08
       706  22  4.585071E-05  9.000028E+00  8.275932E-08  5.927704E-14  1.250307E-08 -8.374871E-15
       706  23  5.223323E-05  9.000030E+00 -1.047394E-07  5.319408E-14 -1.684895E-08 -8.292384E-15
       706  24  5.838819E-05  9.000031E+00 -8.407171E-08  4.418417E-14 -4.620099E-08 -2.669688E-15
       706  25  4.638158E-05  9.000028E+00  1.697249E-07 -3.662204E-06  1.740367E-08 -2.765771E-08
       706  26  5.277390E-05  9.000030E+00  5.095624E-09 -3.155946E-06 -1.194836E-08 -2.879096E-08
       706  27  5.893866E-05  9.000031E+00  4.863276E-08 -2.649687E-06 -4.130039E-08 -2.992419E-08
       707   1  6.197692E-05  9.000031E+00  1.547488E-07  2.278282E-06 -7.000537E-08 -3.010386E-08
       707   2  6.515729E-05  9.000030E+00 -3.695369E-08  1.658094E-06  3.795572E-09 -2.958810E-08
       707   3  6.857053E-05  9.000030E+00  1.098885E-07  1.037907E-06  7.759652E-08 -2.907231E-08
       707   4  6.152885E-05  9.000031E+00  5.755758E-08  3.637050E-14 -6.735331E-08 -1.554910E-14
       707   5  6.470392E-05  9.000030E+00 -1.465211E-07  3.224732E-14  6.447625E-09  3.295529E-15
       707   6  6.811186E-05  9.000030E+00 -1.205513E-08  3.835573E-14  8.024858E-08  8.830465E-15
       707   7  6.197692E-05  9.000031E+00  1.547488E-07 -2.278282E-06 -7.000536E-08  3.010385E-08
       707   8  6.515729E-05  9.000030E+00 -3.695369E-08 -1.658094E-06  3.795595E-09  2.958808E-08
       707   9  6.857053E-05  9.000030E+00  1.098885E-07 -1.037907E-06  7.759653E-08  2.907233E-08
       707  10  6.204763E-05  9.000031E+00  1.403913E-07  2.274497E-06  4.101038E-15  2.454426E-15
       707  11  6.523936E-05  9.000030E+00 -3.995723E-08  1.654310E-06 -2.304463E-17 -2.329916E-16
       707  12  6.866396E-05  9.000030E+00  1.182390E-07  1.034122E-06 -4.615601E-16 -1.984426E-15
       707  13  6.159956E-05  9.000031E+00  4.320008E-08  4.102816E-14  3.137360E-15 -9.340543E-16
       707  14  6.478599E-05  9.000030E+00 -1.495247E-07  3.466523E-14  4.122700E-15 -2.286579E-15
       707  15  6.820528E-05  9.000030E+00 -3.704679E-09  2.565532E-14  9.375651E-17  3.363051E-16
       707  16  6.204763E-05  9.000031E+00  1.403913E-07 -2.274497E-06  1.969459E-15 -2.162465E-15
       707  17  6.523936E-05  9.000030E+00 -3.995724E-08 -1.654310E-06  6.444555E-16  1.222821E-15
       707  18  6.866396E-05  9.000030E+00  1.182390E-07 -1.034122E-06 -1.265947E-16 -1.644628E-15
       707  19  6.197692E-05  9.000031E+00  1.547488E-07  2.278282E-06  7.000537E-08  3.010386E-08
       707  20  6.515729E-05  9.000030E+00 -3.695368E-08  1.658094E-06 -3.795579E-09  2.958809E-08
       707  21  6.857053E-05  9.000030E+00  1.098885E-07  1.037907E-06 -7.759652E-08  2.907232E-08
       707  22  6.152885E-05  9.000031E+00  5.755759E-08  3.545423E-14  6.735332E-08 -1.369636E-15
       707  23  6.470392E-05  9.000030E+00 -1.465211E-07  3.346900E-14 -6.447630E-09 -4.390888E-15
       707  24  6.811186E-05  9.000030E+00 -1.205513E-08  2.702972E-14 -8.024857E-08 -9.789630E-15
       707  25  6.197692E-05  9.000031E+00  1.547488E-07 -2.278282E-06  7.000537E-08 -3.010385E-08
       707  26  6.515729E-05  9.000030E+00 -3.695369E-08 -1.658094E-06 -3.795579E-09 -2.958809E-08
       707  27  6.857053E-05  9.000030E+00  1.098885E-07 -1.037907E-06 -7.759653E-08 -2.907233E-08
       708   1  6.958314E-05  9.000030E+00  1.353943E-07  6.381622E-07 -8.532008E-08 -2.892222E-08
       708   2  6.940353E-05  9.000030E+00 -4.714172E-08 -9.391681E-15  5.299515E-15 -2.892224E-08
       708   3  6.958314E-05  9.000030E+00  1.353943E-07 -6.381622E-07  8.532008E-08 -2.892223E-08
       708   4  6.916589E-05  9.000030E+00  2.826415E-08  2.033592E-14 -8.532008E-08 -2.677999E-15
       708   5  6.898627E-05  9.000029E+00 -1.542718E-07 -8.959002E-15 -2.777984E-15  3.952054E-15
       708   6  6.916589E-05  9.000030E+00  2.826415E-08 -2.697881E-14  8.532008E-08  1.183036E-15
       708   7  6.958314E-05  9.000030E+00  1.353943E-07 -6.381621E-07 -8.532008E-08  2.892224E-08
       708   8  6.940353E-05  9.000030E+00 -4.714172E-08 -2.158305E-14 -3.951706E-15  2.892222E-08
       708   9  6.958314E-05  9.000030E+00  1.353943E-07  6.381621E-07  8.532008E-08  2.892224E-08
       708  10  6.964585E-05  9.000030E+00  1.324686E-07  6.381622E-07 -1.535170E-15 -2.673185E-16
       708  11  6.946623E-05  9.000030E+00 -5.006740E-08 -2.073042E-14  2.904027E-15 -1.269984E-15
       708  12  6.964585E-05  9.000030E+00  1.324686E-07 -6.381622E-07  5.230281E-15 -5.065341E-15
       708  13  6.922859E-05  9.000030E+00  2.533850E-08  2.015776E-14 -1.398089E-16 -1.789590E-15
       708  14  6.904898E-05  9.000029E+00 -1.571975E-07 -1.170779E-14  1.641811E-15 -3.139044E-15
       708  15  6.922859E-05  9.000030E+00  2.533850E-08 -4.438778E-14  2.710783E-15  2.734660E-16
       708  16  6.964585E-05  9.000030E+00  1.324686E-07 -6.381621E-07  1.965172E-15 -2.498111E-15
       708  17  6.946623E-05  9.000030E+00 -5.006741E-08 -1.354031E-14  4.291877E-15 -1.468532E-15
       708  18  6.964585E-05  9.000030E+00  1.324686E-07  6.381621E-07  3.387511E-15 -7.868897E-16
       708  19  6.958314E-05  9.000030E+00  1.353943E-07  6.381622E-07  8.532007E-08  2.892222E-08
       708  20  6.940353E-05  9.000030E+00 -4.714172E-08 -2.417913E-14 -1.324293E-15  2.892223E-08
       708  21  6.958314E-05  9.000030E+00  1.353943E-07 -6.381622E-07 -8.532007E-08  2.892224E-08
       708  22  6.916589E-05  9.000030E+00  2.826416E-08  2.000504E-14  8.532008E-08 -1.165056E-14
       708  23  6.898627E-05  9.000029E+00 -1.542718E-07 -8.882647E-15 -1.918989E-15 -5.591000E-15
       708  24  6.916589E-05  9.000030E+00  2.826417E-08 -4.208440E-14 -8.532008E-08 -2.289603E-15
       708  25  6.958314E-05  9.000030E+00  1.353943E-07 -6.381621E-07  8.532008E-08 -2.892223E-08
       708  26  6.940353E-05  9.000030E+00 -4.714173E-08 -1.448202E-14  4.132623E-16 -2.892223E-08
       708  27  6.958314E-05  9.000030E+00  1.353943E-07  6.381621E-07 -8.532008E-08 -2.892224E-08
       709   1  6.857053E-05  9.000030E+00  1.098885E-07 -1.037907E-06 -7.759652E-08 -2.907232E-08
       709   2  6.515729E-05  9.000030E+00 -3.695369E-08 -1.658094E-06 -3.795583E-09 -2.958810E-08
       709   3  6.197692E-05  9.000031E+00  1.547488E-07 -2.278282E-06  7.000535E-08 -3.010385E-08
       709   4  6.811186E-05  9.000030E+00 -1.205513E-08 -2.242296E-14 -8.024857E-08 -1.016293E-14
       709   5  6.470392E-05  9.000030E+00 -1.465211E-07 -3.553059E-14 -6.447628E-09  3.860108E-15
       709   6  6.152885E-05  9.000031E+00  5.755757E-08 -3.481794E-14  6.735331E-08  9.017486E-15
       709   7  6.857053E-05  9.000030E+00  1.098885E-07  1.037907E-06 -7.759652E-08  2.907232E-08
       709   8  6.515729E-05  9.000030E+00 -3.695368E-08  1.658094E-06 -3.795571E-09  2.958808E-08
       709   9  6.197692E-05  9.000031E+00  1.547488E-07  2.278282E-06  7.000537E-08  3.010388E-08
       709  10  6.866396E-05  9.000030E+00  1.182390E-07 -1.034122E-06  1.284244E-15 -4.593561E-15
       709  11  6.523936E-05  9.000030E+00 -3.995723E-08 -1.654310E-06  1.510336E-16 -2.636664E-15
       709  12  6.204763E-05  9.000031E+00  1.403913E-07 -2.274497E-06 -4.249231E-15  9.370490E-16
       709  13  6.820528E-05  9.000030E+00 -3.704680E-09 -2.076860E-14  4.458818E-18 -1.634012E-15
       709  14  6.478599E-05  9.000030E+00 -1.495247E-07 -2.870953E-14  1.289161E-15 -3.111468E-15
       709  15  6.159956E-05  9.000031E+00  4.320008E-08 -3.858479E-14  5.952971E-16  3.405409E-15
       709  16  6.866396E-05  9.000030E+00  1.182390E-07  1.034122E-06  3.082365E-15 -4.296108E-16
       709  17  6.523936E-05  9.000030E+00 -3.995724E-08  1.654310E-06  4.271928E-15 -7.736238E-16
       709  18  6.204763E-05  9.000031E+00  1.403913E-07  2.274497E-06  4.870478E-16 -2.438917E-16
       709  19  6.857053E-05  9.000030E+00  1.098885E-07 -1.037907E-06  7.759653E-08  2.907231E-08
       709  20  6.515729E-05  9.000030E+00 -3.695368E-08 -1.658094E-06  3.795575E-09  2.958809E-08
       709  21  6.197692E-05  9.000031E+00  1.547488E-07 -2.278282E-06 -7.000537E-08  3.010387E-08
       709  22  6.811186E-05  9.000030E+00 -1.205511E-08 -2.883679E-14  8.024858E-08 -4.293452E-15
       709  23  6.470392E-05  9.000030E+00 -1.465211E-07 -3.041479E-14  6.447621E-09 -7.198661E-15
       709  24  6.152885E-05  9.000031E+00  5.755757E-08 -3.782124E-14 -6.735331E-08 -6.989331E-15
       709  25  6.857053E-05  9.000030E+00  1.098885E-07  1.037907E-06  7.759653E-08 -2.907231E-08
       709  26  6.515729E-05  9.000030E+00 -3.695370E-08  1.658094E-06  3.795569E-09 -2.958810E-08
       709  27  6.197692E-05  9.000031E+00  1.547488E-07  2.278282E-06 -7.000536E-08 -3.010388E-08
       710   1  5.893866E-05  9.000031E+00  4.863275E-08 -2.649687E-06 -4.130040E-08 -2.992417E-08
       710   2  5.277390E-05  9.000030E+00  5.095623E-09 -3.155946E-06 -1.194837E-08 -2.879096E-08
       710   3  4.638158E-05  9.000028E+00  1.697249E-07 -3.662204E-06  1.740367E-08 -2.765771E-08
       710   4  5.838819E-05  9.000031E+00 -8.407173E-08 -4.385330E-14 -4.620098E-08 -3.780823E-15
       710   5  5.223323E-05  9.000030E+00 -1.047394E-07 -6.449464E-14 -1.684896E-08  1.046013E-15
       710   6  4.585071E-05  9.000028E+00  8.275932E-08 -7.192654E-14  1.250307E-08  1.798473E-15
       710   7  5.893866E-05  9.000031E+00  4.863278E-08  2.649687E-06 -4.130039E-08  2.992419E-08
       710   8  5.277390E-05  9.000030E+00  5.095644E-09  3.155946E-06 -1.194836E-08  2.879093E-08
       710   9  4.638158E-05  9.000028E+00  1.697249E-07  3.662204E-06  1.740368E-08  2.765772E-08
       710  10  5.910339E-05  9.000031E+00  6.879784E-08 -2.641911E-06 -2.311358E-15  1.640866E-15
       710  11  5.291529E-05  9.000030E+00  1.933135E-09 -3.148170E-06  1.524585E-15 -4.771531E-15
       710  12  4.649965E-05  9.000028E+00  1.432349E-07 -3.654428E-06 -1.637201E-16 -6.035687E-15
       710  13  5.855292E-05  9.000031E+00 -6.390664E-08 -4.148629E-14  2.393293E-15  8.092086E-16
       710  14  5.237462E-05  9.000030E+00 -1.079019E-07 -6.052417E-14  2.203006E-15 -5.938523E-15
       710  15  4.596878E-05  9.000028E+00  5.626928E-08 -8.215812E-14  2.854455E-15 -1.655827E-15
       710  16  5.910339E-05  9.000031E+00  6.879785E-08  2.641911E-06  4.689750E-16 -1.003518E-15
       710  17  5.291529E-05  9.000030E+00  1.933139E-09  3.148170E-06  6.220461E-15 -3.442977E-15
       710  18  4.649965E-05  9.000028E+00  1.432349E-07  3.654428E-06  3.469402E-15 -1.699970E-15
       710  19  5.893866E-05  9.000031E+00  4.863274E-08 -2.649687E-06  4.130039E-08  2.992418E-08
       710  20  5.277390E-05  9.000030E+00  5.095630E-09 -3.155946E-06  1.194836E-08  2.879095E-08
       710  21  4.638158E-05  9.000028E+00  1.697249E-07 -3.662204E-06 -1.740367E-08  2.765771E-08
       710  22  5.838819E-05  9.000031E+00 -8.407173E-08 -5.189604E-14  4.620099E-08 -8.445677E-15
       710  23  5.223323E-05  9.000030E+00 -1.047394E-07 -5.825897E-14  1.684895E-08 -1.006366E-14
       710  24  4.585071E-05  9.000028E+00  8.275933E-08 -7.475168E-14 -1.250307E-08 -7.521362E-15
       710  25  5.893866E-05  9.000031E+00  4.863275E-08  2.649687E-06  4.130039E-08 -2.992418E-08
       710  26  5.277390E-05  9.000030E+00  5.095628E-09  3.155946E-06  1.194836E-08 -2.879096E-08
       710  27  4.638158E-05  9.000028E+00  1.697249E-07  3.662204E-06 -1.740367E-08 -2.765772E-08
       711   1  4.151943E-05  9.000027E+00 -1.000476E-07 -3.884686E-06  4.255282E-08 -2.563134E-08
       711   2  3.415405E-05  9.000021E+00  9.483031E-08 -3.993850E-06 -2.440288E-08 -1.980099E-08
       711   3  2.557247E-05  9.000012E+00  1.080173E-07 -4.103015E-06 -9.135856E-08 -1.397061E-08
       711   4  4.092272E-05  9.000026E+00 -2.037114E-07 -4.158810E-14  3.706229E-08 -8.790758E-15
       711   5  3.356832E-05  9.000021E+00  1.678896E-08 -5.932794E-14 -2.989340E-08  2.473813E-15
       711   6  2.499772E-05  9.000012E+00  5.559842E-08 -6.866872E-14 -9.684907E-08  5.729139E-15
       711   7  4.151943E-05  9.000027E+00 -1.000476E-07  3.884686E-06  4.255281E-08  2.563135E-08
       711   8  3.415405E-05  9.000021E+00  9.483032E-08  3.993850E-06 -2.440288E-08  1.980097E-08
       711   9  2.557247E-05  9.000012E+00  1.080173E-07  4.103015E-06 -9.135856E-08  1.397063E-08
       711  10  4.178993E-05  9.000026E+00 -7.028840E-08 -3.874263E-06  8.438230E-16 -3.486320E-15
       711  11  3.439328E-05  9.000021E+00  9.332302E-08 -3.983428E-06  6.560766E-15 -2.350745E-15
       711  12  2.578044E-05  9.000012E+00  7.524356E-08 -4.092593E-06  7.884845E-15  2.845014E-15
       711  13  4.119322E-05  9.000026E+00 -1.739522E-07 -4.413327E-14  1.662235E-15 -2.532054E-15
       711  14  3.380756E-05  9.000021E+00  1.528167E-08 -6.469825E-14  3.889850E-15 -3.699257E-15
       711  15  2.520569E-05  9.000012E+00  2.282462E-08 -8.500872E-14  5.706023E-15  4.099928E-15
       711  16  4.178993E-05  9.000026E+00 -7.028840E-08  3.874263E-06  1.348636E-15 -3.022603E-16
       711  17  3.439328E-05  9.000021E+00  9.332302E-08  3.983428E-06  2.812109E-15 -2.957218E-17
       711  18  2.578044E-05  9.000012E+00  7.524356E-08  4.092593E-06  1.660883E-15  1.396832E-15
       711  19  4.151943E-05  9.000027E+00 -1.000476E-07 -3.884686E-06 -4.255281E-08  2.563134E-08
       711  20  3.415405E-05  9.000021E+00  9.483033E-08 -3.993850E-06  2.440290E-08  1.980098E-08
       711  21  2.557247E-05  9.000012E+00  1.080173E-07 -4.103015E-06  9.135858E-08  1.397063E-08
       711  22  4.092272E-05  9.000026E+00 -2.037114E-07 -4.899454E-14 -3.706228E-08 -7.735339E-15
       711  23  3.356832E-05  9.000021E+00  1.678896E-08 -6.502912E-14  2.989341E-08 -7.475131E-15
       711  24  2.499772E-05  9.000012E+00  5.559839E-08 -8.747753E-14  9.684909E-08 -1.755497E-15
       711  25  4.151943E-05  9.000027E+00 -1.000476E-07  3.884686E-06 -4.255281E-08 -2.563134E-08
       711  26  3.415405E-05  9.000021E+00  9.483031E-08  3.993850E-06  2.440288E-08 -1.980099E-08
       711  27  2.557247E-05  9.000012E+00  1.080173E-07  4.103015E-06  9.135856E-08 -1.397063E-08
       712   1  2.010510E-05  9.000005E+00 -3.086032E-07 -3.958155E-06  1.680262E-07 -9.619337E-09
       712   2  1.467965E-05  8.999989E+00  2.324626E-07 -3.371511E-06 -2.309457E-08 -4.966050E-10
       712   3  6.636257E-06  8.999965E+00 -1.069332E-07 -2.784868E-06 -2.142154E-07  8.626165E-09
       712   4  1.958168E-05  9.000005E+00 -3.292793E-07 -7.505710E-14  1.647263E-07 -7.626911E-15
       712   5  1.416283E-05  8.999988E+00  2.271859E-07 -8.325255E-14 -2.639450E-08 -2.443641E-15
       712   6  6.126038E-06  8.999964E+00 -9.681042E-08 -7.968931E-14 -2.175153E-07 -1.029324E-15
       712   7  2.010510E-05  9.000005E+00 -3.086031E-07  3.958155E-06  1.680262E-07  9.619351E-09
       712   8  1.467965E-05  8.999989E+00  2.324626E-07  3.371511E-06 -2.309463E-08  4.965761E-10
       712   9  6.636257E-06  8.999965E+00 -1.069332E-07  2.784868E-06 -2.142154E-07 -8.626159E-09
       712  10  2.047969E-05  9.000005E+00 -2.793417E-07 -3.949784E-06  1.185988E-14  4.200842E-15
       712  11  1.502913E-05  8.999988E+00  2.366115E-07 -3.363141E-06  7.556085E-15 -1.876636E-15
       712  12  6.960622E-06  8.999964E+00 -1.278970E-07 -2.776497E-06  4.914594E-15 -7.252096E-16
       712  13  1.995627E-05  9.000004E+00 -3.000179E-07 -8.811382E-14  6.864108E-15  2.724551E-15
       712  14  1.451231E-05  8.999988E+00  2.313348E-07 -9.814180E-14 -8.974969E-16 -2.394130E-15
       712  15  6.450403E-06  8.999964E+00 -1.177742E-07 -1.043011E-13 -7.065918E-15  2.649789E-15
       712  16  2.047969E-05  9.000005E+00 -2.793417E-07  3.949784E-06 -3.022709E-15  3.210826E-15
       712  17  1.502913E-05  8.999988E+00  2.366115E-07  3.363140E-06 -7.123470E-15  2.047984E-15
       712  18  6.960622E-06  8.999964E+00 -1.278970E-07  2.776497E-06 -5.195036E-15  1.097161E-15
       712  19  2.010510E-05  9.000005E+00 -3.086031E-07 -3.958155E-06 -1.680262E-07  9.619348E-09
       712  20  1.467965E-05  8.999989E+00  2.324626E-07 -3.371511E-06  2.309460E-08  4.965976E-10
       712  21  6.636257E-06  8.999965E+00 -1.069332E-07 -2.784868E-06  2.142154E-07 -8.626153E-09
       712  22  1.958168E-05  9.000005E+00 -3.292793E-07 -1.059809E-13 -1.647263E-07 -1.131187E-15
       712  23  1.416283E-05  8.999988E+00  2.271859E-07 -1.062609E-13  2.639448E-08 -3.845383E-17
       712  24  6.126038E-06  8.999964E+00 -9.681043E-08 -1.029267E-13  2.175153E-07  2.900672E-15
       712  25  2.010510E-05  9.000005E+00 -3.086031E-07  3.958155E-06 -1.680262E-07 -9.619332E-09
       712  26  1.467965E-05  8.999989E+00  2.324626E-07  3.371511E-06  2.309459E-08 -4.965862E-10
       712  27  6.636257E-06  8.999965E+00 -1.069332E-07  2.784868E-06  2.142154E-07  8.626164E-09
       713   1  3.423226E-06  8.999948E+00 -2.823296E-07 -2.187729E-06  2.329087E-07  9.178795E-09
       713   2  2.311199E-06  8.999913E+00  2.277504E-07 -1.332376E-06  1.561207E-08  1.955109E-09
       713   3 -1.893182E-06  8.999870E+00 -4.000286E-07 -4.770217E-07 -2.016846E-07 -5.268555E-09
       713   4  2.963810E-06  8.999948E+00 -2.475434E-07 -9.254242E-14  2.336008E-07 -8.541050E-15
       713   5  1.850399E-06  8.999913E+00  2.593069E-07 -9.544392E-14  1.630416E-08  3.172373E-15
       713   6 -2.355366E-06  8.999870E+00 -3.717018E-07 -9.238971E-14 -2.009925E-07  8.114793E-16
       713   7  3.423226E-06  8.999948E+00 -2.823296E-07  2.187729E-06  2.329087E-07 -9.178786E-09
       713   8  2.311199E-06  8.999913E+00  2.277504E-07  1.332375E-06  1.561206E-08 -1.955126E-09
       713   9 -1.893182E-06  8.999870E+00 -4.000286E-07  4.770214E-07 -2.016846E-07  5.268562E-09
       713  10  3.816005E-06  8.999947E+00 -2.762795E-07 -2.191477E-06  1.293682E-15  1.580891E-15
       713  11  2.715219E-06  8.999913E+00  2.450415E-07 -1.336123E-06 -3.194921E-15 -3.222798E-15
       713  12 -1.477920E-06  8.999870E+00 -3.714965E-07 -4.807686E-07 -4.620217E-15 -8.032220E-15
       713  13  3.356589E-06  8.999947E+00 -2.414933E-07 -9.915987E-14 -3.007301E-15  2.225833E-15
       713  14  2.254419E-06  8.999913E+00  2.765980E-07 -9.798909E-14 -9.202609E-16 -2.042564E-15
       713  15 -1.940105E-06  8.999870E+00 -3.431698E-07 -1.030285E-13  1.649181E-15 -2.875992E-15
       713  16  3.816005E-06  8.999947E+00 -2.762795E-07  2.191476E-06 -3.483869E-15  2.754295E-15
       713  17  2.715219E-06  8.999913E+00  2.450415E-07  1.336122E-06 -4.586803E-15  2.636140E-15
       713  18 -1.477920E-06  8.999870E+00 -3.714965E-07  4.807685E-07 -6.116772E-15 -4.218256E-15
       713  19  3.423226E-06  8.999948E+00 -2.823296E-07 -2.187730E-06 -2.329087E-07 -9.178788E-09
       713  20  2.311199E-06  8.999913E+00  2.277504E-07 -1.332376E-06 -1.561208E-08 -1.955117E-09
       713  21 -1.893182E-06  8.999870E+00 -4.000286E-07 -4.770216E-07  2.016846E-07  5.268551E-09
       713  22  2.963810E-06  8.999948E+00 -2.475433E-07 -1.060064E-13 -2.336008E-07  1.167956E-15
       713  23  1.850399E-06  8.999913E+00  2.593069E-07 -1.045811E-13 -1.630418E-08 -4.921271E-15
       713  24 -2.355366E-06  8.999870E+00 -3.717019E-07 -1.171542E-13  2.009925E-07 -1.094904E-14
       713  25  3.423226E-06  8.999948E+00 -2.823296E-07  2.187729E-06 -2.329087E-07  9.178807E-09
       713  26  2.311199E-06  8.999913E+00  2.277504E-07  1.332375E-06 -1.561208E-08  1.955117E-09
       713  27 -1.893182E-06  8.999870E+00 -4.000287E-07  4.770214E-07  2.016846E-07 -5.268569E-09
       714   1 -1.353633E-06  8.999842E+00  8.869949E-08 -1.537380E-07  1.415941E-07 -8.297037E-09
       714   2 -7.178051E-07  8.999790E+00  1.904777E-07 -9.154531E-08  1.398738E-08 -1.148076E-08
       714   3 -1.776722E-06  8.999733E+00 -6.303987E-08 -2.935264E-08 -1.136194E-07 -1.466445E-08
       714   4 -1.971663E-06  8.999842E+00  4.260440E-08 -1.138964E-13  1.477858E-07 -9.236488E-15
       714   5 -1.348218E-06  8.999790E+00  1.154881E-07 -8.976819E-14  2.017907E-08  7.588919E-15
       714   6 -2.419518E-06  8.999733E+00 -1.669241E-07 -5.922613E-14 -1.074277E-07  5.702811E-15
       714   7 -1.353633E-06  8.999842E+00  8.869952E-08  1.537377E-07  1.415941E-07  8.297047E-09
       714   8 -7.178050E-07  8.999790E+00  1.904777E-07  9.154510E-08  1.398739E-08  1.148075E-08
       714   9 -1.776722E-06  8.999733E+00 -6.303987E-08  2.935250E-08 -1.136193E-07  1.466448E-08
       714  10 -1.110951E-06  8.999842E+00  5.036716E-08 -1.642194E-07 -8.281858E-16 -5.658744E-15
       714  11 -4.436781E-07  8.999790E+00  1.835897E-07 -1.020267E-07 -5.985066E-16 -1.498262E-15
       714  12 -1.471150E-06  8.999733E+00 -3.848366E-08 -3.983408E-08 -4.890148E-15  1.994739E-15
       714  13 -1.728981E-06  8.999842E+00  4.272082E-09 -1.060827E-13 -5.399914E-15 -4.259920E-15
       714  14 -1.074091E-06  8.999790E+00  1.086001E-07 -8.663762E-14 -9.637011E-15 -2.466020E-15
       714  15 -2.113947E-06  8.999733E+00 -1.423678E-07 -7.060305E-14 -2.972918E-15  1.096195E-15
       714  16 -1.110951E-06  8.999842E+00  5.036717E-08  1.642192E-07 -1.047462E-14 -3.091851E-15
       714  17 -4.436781E-07  8.999790E+00  1.835897E-07  1.020266E-07 -2.600146E-16  1.561013E-15
       714  18 -1.471150E-06  8.999733E+00 -3.848363E-08  3.983393E-08 -2.519741E-16 -1.718637E-15
       714  19 -1.353633E-06  8.999842E+00  8.869950E-08 -1.537379E-07 -1.415941E-07  8.297029E-09
       714  20 -7.178051E-07  8.999790E+00  1.904777E-07 -9.154531E-08 -1.398739E-08  1.148075E-08
       714  21 -1.776722E-06  8.999733E+00 -6.303989E-08 -2.935265E-08  1.136194E-07  1.466447E-08
       714  22 -1.971663E-06  8.999842E+00  4.260440E-08 -1.148381E-13 -1.477858E-07 -1.295962E-14
       714  23 -1.348218E-06  8.999790E+00  1.154881E-07 -9.055719E-14 -2.017908E-08 -1.038267E-14
       714  24 -2.419518E-06  8.999733E+00 -1.669241E-07 -6.688710E-14  1.074277E-07 -7.085815E-15
       714  25 -1.353633E-06  8.999842E+00  8.869952E-08  1.537377E-07 -1.415942E-07 -8.297040E-09
       714  26 -7.178050E-07  8.999790E+00  1.904777E-07  9.154511E-08 -1.398738E-08 -1.148076E-08
       714  27 -1.776722E-06  8.999733E+00 -6.303985E-08  2.935253E-08  1.136194E-07 -1.466448E-08
       715   1 -1.643631E-06  8.999698E+00 -5.416751E-08  2.360087E-07  4.439152E-08 -1.216771E-08
       715   2 -8.029373E-07  8.999635E+00 -6.463660E-08  3.358702E-07  1.326679E-08 -4.039874E-10
       715   3 -4.237374E-07  8.999571E+00  9.048294E-08  4.357317E-07 -1.785793E-08  1.135978E-08
       715   4 -1.754771E-06  8.999698E+00  3.774120E-08 -3.441071E-14  6.712062E-08 -9.826083E-15
       715   5 -9.595350E-07  8.999635E+00 -7.879711E-08 -2.367009E-14  3.599590E-08 -4.647343E-16
       715   6 -6.257933E-07  8.999570E+00 -2.974679E-08 -1.784165E-14  4.871166E-09  6.546770E-15
       715   7 -1.643631E-06  8.999698E+00 -5.416750E-08 -2.360088E-07  4.439152E-08  1.216772E-08
       715   8 -8.029374E-07  8.999635E+00 -6.463663E-08 -3.358703E-07  1.326681E-08  4.039619E-10
       715   9 -4.237375E-07  8.999571E+00  9.048290E-08 -4.357318E-07 -1.785793E-08 -1.135976E-08
       715  10 -1.526983E-06  8.999698E+00 -9.054271E-08  2.063264E-07 -4.137806E-15 -2.995036E-16
       715  11 -5.972424E-07  8.999635E+00 -1.196504E-08  3.061879E-07 -6.703332E-16 -8.178862E-15
       715  12 -1.289956E-07  8.999571E+00  2.322013E-07  4.060495E-07 -2.267096E-14  8.996059E-16
       715  13 -1.638122E-06  8.999698E+00  1.365975E-09 -4.148629E-14 -2.088968E-15 -3.845567E-15
       715  14 -7.538400E-07  8.999635E+00 -2.612554E-08 -3.217096E-14 -8.094282E-15 -7.435984E-15
       715  15 -3.310515E-07  8.999571E+00  1.119716E-07 -7.228286E-15 -2.088312E-14  6.705973E-15
       715  16 -1.526983E-06  8.999698E+00 -9.054272E-08 -2.063265E-07 -1.035561E-15 -4.439154E-15
       715  17 -5.972424E-07  8.999635E+00 -1.196507E-08 -3.061880E-07 -3.612869E-15 -2.523559E-15
       715  18 -1.289957E-07  8.999571E+00  2.322013E-07 -4.060495E-07 -1.385090E-15  5.254458E-15
       715  19 -1.643631E-06  8.999698E+00 -5.416748E-08  2.360086E-07 -4.439151E-08  1.216772E-08
       715  20 -8.029374E-07  8.999635E+00 -6.463659E-08  3.358702E-07 -1.326681E-08  4.039690E-10
       715  21 -4.237376E-07  8.999571E+00  9.048289E-08  4.357318E-07  1.785790E-08 -1.135976E-08
       715  22 -1.754771E-06  8.999698E+00  3.774121E-08 -4.665299E-14 -6.712065E-08 -1.061689E-14
       715  23 -9.595350E-07  8.999635E+00 -7.879710E-08 -2.807324E-14 -3.599591E-08 -1.179075E-14
       715  24 -6.257934E-07  8.999570E+00 -2.974677E-08  1.972508E-14 -4.871212E-09  2.898002E-15
       715  25 -1.643631E-06  8.999698E+00 -5.416751E-08 -2.360087E-07 -4.439150E-08 -1.216772E-08
       715  26 -8.029374E-07  8.999635E+00 -6.463663E-08 -3.358702E-07 -1.326680E-08 -4.039807E-10
       715  27 -4.237375E-07  8.999571E+00  9.048292E-08 -4.357317E-07  1.785792E-08  1.135977E-08
       801   1 -8.265990E-07  8.999570E+00 -2.373963E-07  9.098069E-07  3.908535E-08 -1.325125E-07
       801   2 -2.327807E-07  8.999636E+00  2.584408E-07  4.146448E-07 -1.249899E-08  6.338256E-08
       801   3 -1.025227E-06  8.999698E+00  9.123037E-08  4.819197E-07 -6.408332E-08  1.150290E-08
       801   4 -8.493953E-07  8.999569E+00 -3.669718E-08  1.047846E-06  8.671038E-08 -1.499370E-07
       801   5  2.896472E-07  8.999636E+00 -3.487028E-08  2.383977E-07 -3.518333E-08  6.671501E-08
       801   6  2.901995E-07  8.999698E+00 -1.179497E-07 -8.614067E-09 -1.570770E-07  3.559222E-08
       801   7 -3.082038E-07  8.999569E+00  3.846199E-07  1.158738E-06  1.757753E-07 -1.673614E-07
       801   8  1.293183E-06  8.999635E+00 -3.009492E-07  3.500307E-08 -1.642784E-08  7.004745E-08
       801   9  2.003855E-06  8.999698E+00 -4.932835E-07 -5.262954E-07 -2.086309E-07  5.968155E-08
       801  10 -5.704043E-07  8.999570E+00 -1.459182E-07  7.198699E-07  5.355162E-15 -4.074128E-15
       801  11 -4.647405E-08  8.999636E+00  2.800308E-07  2.648915E-07 -4.693195E-15 -8.335184E-15
       801  12 -9.088086E-07  8.999698E+00  4.293224E-08  3.723498E-07 -7.384788E-15 -9.262089E-15
       801  13 -5.228794E-07  8.999569E+00  8.491854E-08  8.346134E-07  6.587608E-15  8.126008E-16
       801  14  5.462750E-07  8.999636E+00  1.685736E-08  6.534829E-08  5.079203E-15 -1.901217E-15
       801  15  4.769392E-07  8.999698E+00 -1.361102E-07 -1.414800E-07  9.119292E-15 -6.691718E-15
       801  16  8.863319E-08  8.999570E+00  5.363733E-07  9.222095E-07  1.791670E-14  3.164213E-15
       801  17  1.620132E-06  8.999635E+00 -2.190839E-07 -1.613424E-07  1.269650E-14 -3.540200E-15
       801  18  2.260915E-06  8.999698E+00 -4.813063E-07 -6.824573E-07  1.291881E-14 -8.662972E-15
       801  19 -8.265991E-07  8.999570E+00 -2.373963E-07  9.098068E-07 -3.908534E-08  1.325125E-07
       801  20 -2.327807E-07  8.999636E+00  2.584408E-07  4.146449E-07  1.249897E-08 -6.338257E-08
       801  21 -1.025227E-06  8.999698E+00  9.123034E-08  4.819198E-07  6.408329E-08 -1.150291E-08
       801  22 -8.493953E-07  8.999569E+00 -3.669716E-08  1.047846E-06 -8.671037E-08  1.499370E-07
       801  23  2.896472E-07  8.999636E+00 -3.487026E-08  2.383977E-07  3.518333E-08 -6.671501E-08
       801  24  2.901996E-07  8.999698E+00 -1.179497E-07 -8.614035E-09  1.570770E-07 -3.559222E-08
       801  25 -3.082039E-07  8.999569E+00  3.846198E-07  1.158738E-06 -1.757752E-07  1.673614E-07
       801  26  1.293183E-06  8.999635E+00 -3.009492E-07  3.500311E-08  1.642787E-08 -7.004746E-08
       801  27  2.003855E-06  8.999698E+00 -4.932834E-07 -5.262954E-07  2.086309E-07 -5.968155E-08
       802   1 -1.184809E-06  8.999733E+00 -1.427827E-07  1.870474E-07  1.018210E-07 -5.691286E-08
       802   2 -2.072112E-07  8.999790E+00 -4.388895E-08 -1.349796E-07 -1.646884E-08 -5.598168E-08
       802   3 -5.261134E-07  8.999842E+00  8.339357E-08 -2.993639E-07 -1.347587E-07 -1.752306E-08
       802   4  8.037843E-07  8.999733E+00 -6.072456E-08 -3.494727E-07  5.281490E-08 -2.951937E-08
       802   5  2.032857E-06  8.999790E+00  6.029581E-08 -4.191608E-07 -3.345762E-08 -3.799025E-08
       802   6  1.927903E-06  8.999843E+00  1.221409E-07 -3.312060E-07 -1.197301E-07 -8.933710E-09
       802   7  4.363791E-06  8.999734E+00  3.022052E-07 -8.761996E-07  1.267629E-08 -2.125875E-09
       802   8  5.826604E-06  8.999791E+00  4.039703E-07 -6.935487E-07 -4.157883E-08 -1.999882E-08
       802   9  5.917863E-06  8.999844E+00  3.589961E-07 -3.532549E-07 -9.583395E-08 -3.443384E-10
       802  10 -8.890271E-07  8.999733E+00 -1.309085E-07  1.206692E-07 -6.119942E-15 -2.986638E-15
       802  11  5.804125E-08  8.999790E+00 -6.254410E-08 -1.914177E-07  2.070294E-15 -1.160464E-15
       802  12 -2.913904E-07  8.999842E+00  3.420904E-08 -3.458617E-07 -3.646512E-15 -6.931640E-15
       802  13  1.116961E-06  8.999733E+00 -4.139521E-08 -4.260274E-07  1.106335E-14 -4.208326E-15
       802  14  2.315505E-06  8.999790E+00  4.909583E-08 -4.857753E-07  5.920579E-15  3.339225E-15
       802  15  2.180021E-06  8.999842E+00  8.041160E-08 -3.878803E-07  2.211377E-15 -6.464848E-16
       802  16  4.694363E-06  8.999733E+00  3.289898E-07 -9.629308E-07  1.201814E-14 -6.030760E-15
       802  17  6.126647E-06  8.999791E+00  4.002255E-07 -7.703396E-07  2.990289E-15  2.412865E-15
       802  18  6.187376E-06  8.999843E+00  3.247220E-07 -4.201056E-07  1.004930E-14  3.313734E-15
       802  19 -1.184809E-06  8.999733E+00 -1.427826E-07  1.870475E-07 -1.018210E-07  5.691287E-08
       802  20 -2.072111E-07  8.999790E+00 -4.388894E-08 -1.349796E-07  1.646885E-08  5.598168E-08
       802  21 -5.261135E-07  8.999842E+00  8.339355E-08 -2.993639E-07  1.347587E-07  1.752305E-08
       802  22  8.037843E-07  8.999733E+00 -6.072456E-08 -3.494727E-07 -5.281488E-08  2.951936E-08
       802  23  2.032857E-06  8.999790E+00  6.029580E-08 -4.191608E-07  3.345762E-08  3.799025E-08
       802  24  1.927903E-06  8.999843E+00  1.221409E-07 -3.312060E-07  1.197301E-07  8.933701E-09
       802  25  4.363791E-06  8.999734E+00  3.022052E-07 -8.761996E-07 -1.267630E-08  2.125850E-09
       802  26  5.826604E-06  8.999791E+00  4.039703E-07 -6.935487E-07  4.157883E-08  1.999883E-08
       802  27  5.917863E-06  8.999844E+00  3.589962E-07 -3.532549E-07  9.583396E-08  3.443471E-10
       803   1 -9.638149E-07  8.999871E+00 -2.612978E-07 -7.838095E-07  2.015833E-07  1.476059E-08
       803   2  3.255251E-06  8.999914E+00  4.007989E-07 -2.048948E-06 -1.669317E-08  3.217901E-08
       803   3  4.115751E-06  8.999948E+00 -3.226371E-07 -3.429246E-06 -2.349696E-07  1.817880E-09
       803   4  1.073661E-06  8.999871E+00 -4.574720E-07 -1.136642E-06  2.004458E-07  1.869255E-08
       803   5  5.290297E-06  8.999915E+00  2.717666E-07 -3.352410E-06 -2.119752E-08  2.950798E-08
       803   6  6.196147E-06  8.999949E+00 -2.730421E-07 -5.683338E-06 -2.428409E-07 -7.456143E-09
       803   7  4.022441E-06  8.999871E+00 -7.344388E-07 -1.411710E-06  2.005421E-07  2.262451E-08
       803   8  8.234180E-06  8.999916E+00  5.618431E-08 -4.578108E-06 -2.446818E-08  2.683695E-08
       803   9  9.182912E-06  8.999950E+00 -3.157543E-07 -7.859666E-06 -2.494785E-07 -1.673014E-08
       803  10 -5.531691E-07  8.999870E+00 -2.418601E-07 -8.122701E-07 -5.190545E-15 -5.821317E-15
       803  11  3.655692E-06  8.999914E+00  4.100324E-07 -2.062016E-06 -7.778434E-15 -3.866262E-15
       803  12  4.505988E-06  8.999948E+00 -3.236079E-07 -3.426922E-06 -1.153491E-14 -5.105427E-15
       803  13  1.511243E-06  8.999871E+00 -4.264902E-07 -1.168504E-06 -7.172885E-16 -3.708834E-15
       803  14  5.717675E-06  8.999915E+00  2.925442E-07 -3.368880E-06 -1.203914E-15 -1.300949E-16
       803  15  6.613321E-06  8.999949E+00 -2.624687E-07 -5.684415E-06 -4.627922E-15  2.720824E-15
       803  16  4.486959E-06  8.999871E+00 -6.919129E-07 -1.446974E-06  8.127584E-15  1.620685E-15
       803  17  8.688494E-06  8.999915E+00  8.850599E-08 -4.597980E-06  5.473793E-15  3.066731E-15
       803  18  9.627022E-06  8.999950E+00 -2.936368E-07 -7.864145E-06  6.898658E-15  1.080299E-14
       803  19 -9.638149E-07  8.999871E+00 -2.612978E-07 -7.838095E-07 -2.015833E-07 -1.476059E-08
       803  20  3.255251E-06  8.999914E+00  4.007989E-07 -2.048948E-06  1.669315E-08 -3.217902E-08
       803  21  4.115751E-06  8.999948E+00 -3.226372E-07 -3.429246E-06  2.349696E-07 -1.817886E-09
       803  22  1.073661E-06  8.999871E+00 -4.574720E-07 -1.136642E-06 -2.004458E-07 -1.869257E-08
       803  23  5.290297E-06  8.999915E+00  2.717666E-07 -3.352410E-06  2.119753E-08 -2.950798E-08
       803  24  6.196147E-06  8.999949E+00 -2.730421E-07 -5.683338E-06  2.428409E-07  7.456144E-09
       803  25  4.022441E-06  8.999871E+00 -7.344388E-07 -1.411710E-06 -2.005421E-07 -2.262453E-08
       803  26  8.234180E-06  8.999916E+00  5.618429E-08 -4.578108E-06  2.446820E-08 -2.683695E-08
       803  27  9.182912E-06  8.999950E+00 -3.157542E-07 -7.859666E-06  2.494785E-07  1.673017E-08
       804   1  7.274874E-06  8.999965E+00 -2.116558E-07 -4.393478E-06  2.151124E-07 -1.042395E-08
       804   2  1.541618E-05  8.999989E+00  2.104021E-07 -5.404630E-06  2.407291E-08 -1.034057E-09
       804   3  2.090456E-05  9.000005E+00 -2.771138E-07 -6.310563E-06 -1.669666E-07 -6.739165E-09
       804   4  9.479279E-06  8.999966E+00 -7.755581E-08 -7.187214E-06  2.209191E-07 -1.873023E-08
       804   5  1.756466E-05  8.999989E+00  2.289210E-07 -8.753471E-06  3.015911E-08  5.883648E-10
       804   6  2.301222E-05  9.000005E+00 -3.389543E-07 -1.021451E-05 -1.606009E-07  4.811948E-09
       804   7  1.277375E-05  8.999967E+00  4.990164E-08 -1.007236E-05  2.192343E-07 -2.703649E-08
       804   8  2.081819E-05  8.999990E+00  2.757580E-07 -1.219372E-05  2.875376E-08  2.210783E-09
       804   9  2.623991E-05  9.000006E+00 -3.375161E-07 -1.420986E-05 -1.617268E-07  1.636307E-08
       804  10  7.592998E-06  8.999964E+00 -2.405691E-07 -4.365615E-06 -1.526609E-14 -1.590350E-15
       804  11  1.576233E-05  8.999988E+00  2.095146E-07 -5.370896E-06 -6.651433E-15 -1.595988E-15
       804  12  2.127874E-05  9.000005E+00 -2.499755E-07 -6.270959E-06  1.511830E-15 -8.944452E-15
       804  13  9.807675E-06  8.999965E+00 -1.020664E-07 -7.150009E-06 -4.641374E-15  1.868628E-15
       804  14  1.792108E-05  8.999989E+00  2.324362E-07 -8.710395E-06 -3.123384E-15 -5.806747E-16
       804  15  2.339667E-05  9.000005E+00 -3.074133E-07 -1.016556E-05  3.534519E-15 -5.495878E-15
       804  16  1.311242E-05  8.999967E+00  2.979377E-08 -1.002581E-05  3.688708E-15  1.084021E-14
       804  17  2.118489E-05  8.999990E+00  2.836759E-07 -1.214130E-05 -2.649518E-15 -2.705737E-15
       804  18  2.663463E-05  9.000005E+00 -3.015724E-07 -1.415157E-05 -2.704470E-15 -7.301690E-15
       804  19  7.274874E-06  8.999965E+00 -2.116558E-07 -4.393478E-06 -2.151124E-07  1.042396E-08
       804  20  1.541618E-05  8.999989E+00  2.104021E-07 -5.404630E-06 -2.407291E-08  1.034057E-09
       804  21  2.090456E-05  9.000005E+00 -2.771138E-07 -6.310563E-06  1.669666E-07  6.739156E-09
       804  22  9.479279E-06  8.999966E+00 -7.755580E-08 -7.187214E-06 -2.209191E-07  1.873022E-08
       804  23  1.756466E-05  8.999989E+00  2.289210E-07 -8.753471E-06 -3.015912E-08 -5.883698E-10
       804  24  2.301222E-05  9.000005E+00 -3.389543E-07 -1.021451E-05  1.606009E-07 -4.811958E-09
       804  25  1.277375E-05  8.999967E+00  4.990159E-08 -1.007236E-05 -2.192343E-07  2.703649E-08
       804  26  2.081819E-05  8.999990E+00  2.757580E-07 -1.219372E-05 -2.875377E-08 -2.210788E-09
       804  27  2.623991E-05  9.000006E+00 -3.375161E-07 -1.420986E-05  1.617267E-07 -1.636308E-08
       805   1  2.637338E-05  9.000012E+00  1.376007E-07 -6.520301E-06  9.045010E-08 -1.553861E-08
       805   2  3.487975E-05  9.000021E+00  8.540391E-08 -6.348486E-06  2.449743E-08 -2.401027E-08
       805   3  4.222905E-05  9.000026E+00 -9.314110E-08 -6.201626E-06 -4.145524E-08 -2.269304E-08
       805   4  2.843689E-05  9.000012E+00  6.091169E-08 -1.055897E-05  9.193398E-08  4.033446E-10
       805   5  3.682796E-05  9.000021E+00  5.564445E-09 -1.024380E-05  2.942815E-08 -2.907889E-09
       805   6  4.405217E-05  9.000026E+00 -1.989718E-07 -9.953589E-06 -3.307767E-08  3.569763E-09
       805   7  3.166991E-05  9.000012E+00  9.070672E-08 -1.464330E-05  8.106629E-08  1.634530E-08
       805   8  3.997039E-05  9.000021E+00  8.984970E-08 -1.418479E-05  2.200730E-08  1.819449E-08
       805   9  4.709422E-05  9.000026E+00 -8.303707E-08 -1.375123E-05 -3.705168E-08  2.983258E-08
       805  10  2.657892E-05  9.000012E+00  1.027115E-07 -6.476116E-06  4.729796E-15 -6.433420E-15
       805  11  3.511888E-05  9.000021E+00  8.411119E-08 -6.305387E-06  2.494601E-15 -2.893263E-15
       805  12  4.250177E-05  9.000026E+00 -6.083733E-08 -6.159613E-06  4.265775E-15 -1.949182E-15
       805  13  2.864052E-05  9.000012E+00  2.520817E-08 -1.050358E-05  7.193653E-15 -5.623857E-15
       805  14  3.706519E-05  9.000021E+00  3.457447E-09 -1.018950E-05  5.745933E-15 -4.296386E-16
       805  15  4.432300E-05  9.000026E+00 -1.674823E-07 -9.900377E-06  3.347409E-15  9.546371E-16
       805  16  3.187165E-05  9.000012E+00  5.418896E-08 -1.457672E-05  3.942077E-15 -6.219677E-15
       805  17  4.020572E-05  9.000021E+00  8.692843E-08 -1.411929E-05  4.233262E-15 -3.188552E-15
       805  18  4.736315E-05  9.000025E+00 -5.236184E-08 -1.368681E-05  3.366467E-15  2.035153E-15
       805  19  2.637338E-05  9.000012E+00  1.376007E-07 -6.520301E-06 -9.045009E-08  1.553860E-08
       805  20  3.487975E-05  9.000021E+00  8.540391E-08 -6.348486E-06 -2.449742E-08  2.401027E-08
       805  21  4.222905E-05  9.000026E+00 -9.314110E-08 -6.201626E-06  4.145525E-08  2.269304E-08
       805  22  2.843689E-05  9.000012E+00  6.091169E-08 -1.055897E-05 -9.193397E-08 -4.033683E-10
       805  23  3.682796E-05  9.000021E+00  5.564433E-09 -1.024380E-05 -2.942814E-08  2.907885E-09
       805  24  4.405217E-05  9.000026E+00 -1.989718E-07 -9.953589E-06  3.307769E-08 -3.569770E-09
       805  25  3.166991E-05  9.000012E+00  9.070669E-08 -1.464330E-05 -8.106629E-08 -1.634533E-08
       805  26  3.997039E-05  9.000021E+00  8.984967E-08 -1.418479E-05 -2.200730E-08 -1.819450E-08
       805  27  4.709422E-05  9.000026E+00 -8.303707E-08 -1.375123E-05  3.705168E-08 -2.983257E-08
       806   1  4.706700E-05  9.000028E+00  1.793097E-07 -5.831239E-06 -1.769542E-08 -2.481654E-08
       806   2  5.337754E-05  9.000030E+00 -7.699392E-09 -4.968696E-06  1.182057E-08 -3.225877E-08
       806   3  5.949664E-05  9.000031E+00  4.506374E-08 -4.230567E-06  4.133656E-08 -2.809569E-08
       806   4  4.883699E-05  9.000028E+00  8.313989E-08 -9.364116E-06 -1.403479E-08  3.098681E-09
       806   5  5.495489E-05  9.000029E+00 -1.048379E-07 -7.997605E-06  1.604468E-08 -3.825378E-09
       806   6  6.086973E-05  9.000030E+00 -8.012239E-08 -6.755509E-06  4.612415E-08  8.558369E-10
       806   7  5.164454E-05  9.000027E+00  1.559677E-07 -1.290545E-05 -2.054299E-08  3.101392E-08
       806   8  5.759012E-05  9.000029E+00  1.447583E-08 -1.103497E-05  1.009996E-08  2.460800E-08
       806   9  6.332105E-05  9.000029E+00  5.859815E-08 -9.288909E-06  4.074291E-08  2.980738E-08
       806  10  4.718656E-05  9.000028E+00  1.554610E-07 -5.795085E-06  5.812921E-15 -3.565907E-16
       806  11  5.352057E-05  9.000030E+00 -8.085346E-09 -4.936471E-06  1.357961E-15 -3.949454E-15
       806  12  5.966313E-05  9.000031E+00  6.814055E-08 -4.202272E-06  1.084814E-15 -7.644124E-15
       806  13  4.894968E-05  9.000027E+00  5.634412E-08 -9.320141E-06  1.816951E-15 -5.856562E-16
       806  14  5.509104E-05  9.000029E+00 -1.081709E-07 -7.957559E-06  1.384269E-15 -5.465606E-16
       806  15  6.102935E-05  9.000030E+00 -5.999262E-08 -6.719392E-06  7.449473E-16 -2.169684E-15
       806  16  5.175035E-05  9.000027E+00  1.262249E-07 -1.285365E-05 -8.621987E-16  3.827621E-15
       806  17  5.771940E-05  9.000028E+00  8.195808E-09 -1.098711E-05 -1.188521E-15  1.049213E-15
       806  18  6.347379E-05  9.000029E+00  7.578091E-08 -9.244971E-06 -2.172278E-15 -2.081783E-15
       806  19  4.706700E-05  9.000028E+00  1.793097E-07 -5.831239E-06  1.769544E-08  2.481655E-08
       806  20  5.337754E-05  9.000030E+00 -7.699391E-09 -4.968696E-06 -1.182056E-08  3.225876E-08
       806  21  5.949664E-05  9.000031E+00  4.506374E-08 -4.230567E-06 -4.133656E-08  2.809568E-08
       806  22  4.883699E-05  9.000028E+00  8.313989E-08 -9.364116E-06  1.403479E-08 -3.098699E-09
       806  23  5.495489E-05  9.000029E+00 -1.048379E-07 -7.997605E-06 -1.604468E-08  3.825374E-09
       806  24  6.086973E-05  9.000030E+00 -8.012239E-08 -6.755509E-06 -4.612416E-08 -8.558474E-10
       806  25  5.164454E-05  9.000027E+00  1.559677E-07 -1.290545E-05  2.054298E-08 -3.101393E-08
       806  26  5.759012E-05  9.000029E+00  1.447581E-08 -1.103497E-05 -1.009997E-08 -2.460800E-08
       806  27  6.332105E-05  9.000029E+00  5.859819E-08 -9.288909E-06 -4.074291E-08 -2.980738E-08
       807   1  6.251179E-05  9.000031E+00  1.569687E-07 -3.652126E-06 -6.946576E-08 -2.679130E-08
       807   2  6.564855E-05  9.000030E+00 -3.965298E-08 -2.603347E-06  3.689692E-09 -3.016215E-08
       807   3  6.901964E-05  9.000030E+00  1.014481E-07 -1.647665E-06  7.684515E-08 -2.764458E-08
       807   4  6.386676E-05  9.000030E+00  5.525161E-08 -5.822157E-06 -6.500428E-08  2.105680E-09
       807   5  6.687902E-05  9.000029E+00 -1.398532E-07 -4.181484E-06  5.932937E-09 -1.970705E-09
       807   6  7.011971E-05  9.000029E+00 -1.097495E-08 -2.633909E-06  7.687016E-08 -1.586928E-10
       807   7  6.607109E-05  9.000029E+00  1.365833E-07 -7.987615E-06 -6.591655E-08  3.100267E-08
       807   8  6.896958E-05  9.000028E+00 -3.192716E-08 -5.755050E-06  2.802453E-09  2.622073E-08
       807   9  7.209063E-05  9.000028E+00  1.098058E-07 -3.615581E-06  7.152143E-08  2.732722E-08
       807  10  6.258433E-05  9.000031E+00  1.455583E-07 -3.632434E-06 -4.040337E-16 -3.242612E-15
       807  11  6.573238E-05  9.000030E+00 -3.976619E-08 -2.587526E-06 -2.504703E-15 -6.629269E-16
       807  12  6.911477E-05  9.000030E+00  1.126320E-07 -1.635716E-06 -5.125802E-16 -1.124720E-15
       807  13  6.393252E-05  9.000030E+00  4.093734E-08 -5.798698E-06  9.884292E-17 -1.410089E-15
       807  14  6.695607E-05  9.000029E+00 -1.428703E-07 -4.161897E-06  2.356764E-15  4.651293E-15
       807  15  7.020806E-05  9.000029E+00 -2.694859E-09 -2.618194E-06  1.051156E-15  8.985666E-16
       807  16  6.613007E-05  9.000029E+00  1.193652E-07 -7.960391E-06  2.115482E-15  7.379870E-16
       807  17  6.903986E-05  9.000028E+00 -3.784811E-08 -5.731697E-06  2.953877E-15  4.539354E-15
       807  18  7.217220E-05  9.000028E+00  1.151820E-07 -3.596101E-06  1.686518E-15  4.004941E-15
       807  19  6.251179E-05  9.000031E+00  1.569687E-07 -3.652126E-06  6.946575E-08  2.679131E-08
       807  20  6.564855E-05  9.000030E+00 -3.965298E-08 -2.603347E-06 -3.689703E-09  3.016215E-08
       807  21  6.901964E-05  9.000030E+00  1.014480E-07 -1.647665E-06 -7.684515E-08  2.764458E-08
       807  22  6.386676E-05  9.000030E+00  5.525162E-08 -5.822157E-06  6.500428E-08 -2.105697E-09
       807  23  6.687902E-05  9.000029E+00 -1.398532E-07 -4.181484E-06 -5.932942E-09  1.970710E-09
       807  24  7.011971E-05  9.000029E+00 -1.097495E-08 -2.633909E-06 -7.687016E-08  1.586878E-10
       807  25  6.607109E-05  9.000029E+00  1.365833E-07 -7.987615E-06  6.591655E-08 -3.100269E-08
       807  26  6.896958E-05  9.000028E+00 -3.192716E-08 -5.755050E-06 -2.802434E-09 -2.622073E-08
       807  27  7.209063E-05  9.000028E+00  1.098058E-07 -3.615581E-06 -7.152142E-08 -2.732720E-08
       808   1  7.002167E-05  9.000030E+00  1.280059E-07 -1.032356E-06 -8.438592E-08 -2.699883E-08
       808   2  6.984680E-05  9.000029E+00 -4.908520E-08 -1.145327E-14  3.617942E-15 -2.878822E-08
       808   3  7.002167E-05  9.000030E+00  1.280059E-07  1.032356E-06  8.438592E-08 -2.699885E-08
       808   4  7.111819E-05  9.000029E+00  2.693568E-08 -1.636030E-06 -8.117570E-08  2.817398E-10
       808   5  7.094512E-05  9.000028E+00 -1.459802E-07 -7.075576E-15 -5.029520E-15 -1.507634E-09
       808   6  7.111819E-05  9.000029E+00  2.693567E-08  1.636030E-06  8.117570E-08  2.817349E-10
       808   7  7.299871E-05  9.000028E+00  1.278003E-07 -2.239703E-06 -7.796548E-08  2.756232E-08
       808   8  7.282742E-05  9.000028E+00 -4.094040E-08 -1.814707E-14 -7.759460E-15  2.577295E-08
       808   9  7.299871E-05  9.000028E+00  1.278002E-07  2.239703E-06  7.796547E-08  2.756233E-08
       808  10  7.008613E-05  9.000030E+00  1.279238E-07 -1.028606E-06  4.011243E-16  6.908550E-16
       808  11  6.991126E-05  9.000029E+00 -4.916720E-08 -1.873246E-14  2.473312E-15 -3.246419E-15
       808  12  7.008613E-05  9.000030E+00  1.279239E-07  1.028606E-06  3.113389E-15 -3.645905E-15
       808  13  7.117609E-05  9.000029E+00  2.404140E-08 -1.632280E-06 -8.691947E-16 -1.243475E-15
       808  14  7.100302E-05  9.000028E+00 -1.488744E-07 -8.348161E-15 -7.419362E-16  6.934055E-16
       808  15  7.117609E-05  9.000029E+00  2.404140E-08  1.632280E-06 -1.785456E-15 -2.528602E-15
       808  16  7.305004E-05  9.000028E+00  1.220937E-07 -2.235954E-06 -9.208611E-16  3.347963E-15
       808  17  7.287876E-05  9.000028E+00 -4.664694E-08 -1.262405E-14 -4.775845E-16  2.566702E-15
       808  18  7.305004E-05  9.000028E+00  1.220937E-07  2.235954E-06 -4.334346E-15 -7.500699E-15
       808  19  7.002167E-05  9.000030E+00  1.280059E-07 -1.032356E-06  8.438592E-08  2.699884E-08
       808  20  6.984680E-05  9.000029E+00 -4.908519E-08 -2.290654E-14 -3.970653E-16  2.878822E-08
       808  21  7.002167E-05  9.000030E+00  1.280059E-07  1.032356E-06 -8.438592E-08  2.699885E-08
       808  22  7.111819E-05  9.000029E+00  2.693568E-08 -1.636030E-06  8.117570E-08 -2.817568E-10
       808  23  7.094512E-05  9.000028E+00 -1.459802E-07 -9.162616E-15 -2.567067E-15  1.507632E-09
       808  24  7.111819E-05  9.000029E+00  2.693568E-08  1.636030E-06 -8.117571E-08 -2.817370E-10
       808  25  7.299871E-05  9.000028E+00  1.278002E-07 -2.239703E-06  7.796548E-08 -2.756233E-08
       808  26  7.282742E-05  9.000028E+00 -4.094039E-08 -2.178666E-14 -2.446415E-15 -2.577295E-08
       808  27  7.299871E-05  9.000028E+00  1.278002E-07  2.239703E-06 -7.796548E-08 -2.756233E-08
       809   1  6.901964E-05  9.000030E+00  1.014481E-07  1.647665E-06 -7.684515E-08 -2.764457E-08
       809   2  6.564855E-05  9.000030E+00 -3.965297E-08  2.603347E-06 -3.689695E-09 -3.016215E-08
       809   3  6.251179E-05  9.000031E+00  1.569687E-07  3.652127E-06  6.946575E-08 -2.679130E-08
       809   4  7.011971E-05  9.000029E+00 -1.097495E-08  2.633909E-06 -7.687016E-08 -1.586905E-10
       809   5  6.687902E-05  9.000029E+00 -1.398532E-07  4.181484E-06 -5.932942E-09 -1.970707E-09
       809   6  6.386676E-05  9.000030E+00  5.525162E-08  5.822157E-06  6.500427E-08  2.105690E-09
       809   7  7.209063E-05  9.000028E+00  1.098058E-07  3.615581E-06 -7.152142E-08  2.732720E-08
       809   8  6.896958E-05  9.000028E+00 -3.192714E-08  5.755050E-06 -2.802438E-09  2.622073E-08
       809   9  6.607109E-05  9.000029E+00  1.365833E-07  7.987615E-06  6.591653E-08  3.100270E-08
       809  10  6.911477E-05  9.000030E+00  1.126320E-07  1.635716E-06  2.172655E-15 -9.251916E-16
       809  11  6.573238E-05  9.000030E+00 -3.976619E-08  2.587526E-06  4.920828E-15 -3.879183E-15
       809  12  6.258433E-05  9.000031E+00  1.455583E-07  3.632434E-06 -4.211524E-16 -1.590121E-15
       809  13  7.020806E-05  9.000029E+00 -2.694858E-09  2.618194E-06  1.983596E-16 -5.302885E-15
       809  14  6.695607E-05  9.000029E+00 -1.428703E-07  4.161897E-06  4.282750E-15 -6.011023E-16
       809  15  6.393252E-05  9.000030E+00  4.093735E-08  5.798698E-06 -4.197598E-16  6.170079E-15
       809  16  7.217220E-05  9.000028E+00  1.151820E-07  3.596101E-06  1.360072E-15 -9.568643E-15
       809  17  6.903986E-05  9.000028E+00 -3.784810E-08  5.731697E-06  4.496688E-15 -2.545564E-15
       809  18  6.613007E-05  9.000029E+00  1.193652E-07  7.960391E-06 -5.040276E-15  1.064057E-14
       809  19  6.901964E-05  9.000030E+00  1.014480E-07  1.647665E-06  7.684516E-08  2.764459E-08
       809  20  6.564855E-05  9.000030E+00 -3.965298E-08  2.603347E-06  3.689696E-09  3.016215E-08
       809  21  6.251179E-05  9.000031E+00  1.569687E-07  3.652127E-06 -6.946576E-08  2.679130E-08
       809  22  7.011971E-05  9.000029E+00 -1.097494E-08  2.633909E-06  7.687016E-08  1.586724E-10
       809  23  6.687902E-05  9.000029E+00 -1.398532E-07  4.181484E-06  5.932940E-09  1.970704E-09
       809  24  6.386676E-05  9.000030E+00  5.525161E-08  5.822157E-06 -6.500427E-08 -2.105683E-09
       809  25  7.209063E-05  9.000028E+00  1.098058E-07  3.615581E-06  7.152142E-08 -2.732723E-08
       809  26  6.896958E-05  9.000028E+00 -3.192716E-08  5.755050E-06  2.802433E-09 -2.622074E-08
       809  27  6.607109E-05  9.000029E+00  1.365833E-07  7.987615E-06 -6.591654E-08 -3.100267E-08
       810   1  5.949664E-05  9.000031E+00  4.506375E-08  4.230567E-06 -4.133656E-08 -2.809565E-08
       810   2  5.337754E-05  9.000030E+00 -7.699394E-09  4.968696E-06 -1.182056E-08 -3.225876E-08
       810   3  4.706700E-05  9.000028E+00  1.793097E-07  5.831239E-06  1.769544E-08 -2.481656E-08
       810   4  6.086973E-05  9.000030E+00 -8.012239E-08  6.755509E-06 -4.612415E-08  8.558584E-10
       810   5  5.495489E-05  9.000029E+00 -1.048379E-07  7.997605E-06 -1.604468E-08 -3.825370E-09
       810   6  4.883699E-05  9.000028E+00  8.313987E-08  9.364116E-06  1.403479E-08  3.098686E-09
       810   7  6.332105E-05  9.000029E+00  5.859817E-08  9.288909E-06 -4.074293E-08  2.980738E-08
       810   8  5.759012E-05  9.000029E+00  1.447582E-08  1.103497E-05 -1.009997E-08  2.460801E-08
       810   9  5.164454E-05  9.000027E+00  1.559677E-07  1.290545E-05  2.054299E-08  3.101395E-08
       810  10  5.966313E-05  9.000031E+00  6.814054E-08  4.202272E-06 -8.730479E-16  7.105981E-16
       810  11  5.352057E-05  9.000030E+00 -8.085351E-09  4.936471E-06  5.851661E-15 -4.955419E-15
       810  12  4.718656E-05  9.000028E+00  1.554610E-07  5.795085E-06  2.692396E-16 -2.031482E-15
       810  13  6.102935E-05  9.000030E+00 -5.999262E-08  6.719392E-06 -1.894522E-15  4.451999E-15
       810  14  5.509104E-05  9.000029E+00 -1.081708E-07  7.957559E-06  7.657883E-16 -8.119787E-16
       810  15  4.894968E-05  9.000027E+00  5.634411E-08  9.320141E-06 -2.069651E-15  5.239750E-15
       810  16  6.347379E-05  9.000029E+00  7.578096E-08  9.244971E-06 -8.959569E-15  1.059599E-14
       810  17  5.771940E-05  9.000028E+00  8.195813E-09  1.098711E-05  1.665913E-15 -4.657868E-16
       810  18  5.175035E-05  9.000027E+00  1.262249E-07  1.285365E-05 -3.134004E-15  6.712323E-15
       810  19  5.949664E-05  9.000031E+00  4.506374E-08  4.230567E-06  4.133656E-08  2.809567E-08
       810  20  5.337754E-05  9.000030E+00 -7.699390E-09  4.968696E-06  1.182057E-08  3.225875E-08
       810  21  4.706700E-05  9.000028E+00  1.793097E-07  5.831239E-06 -1.769543E-08  2.481656E-08
       810  22  6.086973E-05  9.000030E+00 -8.012238E-08  6.755509E-06  4.612415E-08 -8.558644E-10
       810  23  5.495489E-05  9.000029E+00 -1.048379E-07  7.997605E-06  1.604467E-08  3.825364E-09
       810  24  4.883699E-05  9.000028E+00  8.313987E-08  9.364116E-06 -1.403480E-08 -3.098680E-09
       810  25  6.332105E-05  9.000029E+00  5.859815E-08  9.288909E-06  4.074291E-08 -2.980738E-08
       810  26  5.759012E-05  9.000029E+00  1.447581E-08  1.103497E-05  1.009997E-08 -2.460801E-08
       810  27  5.164454E-05  9.000027E+00  1.559677E-07  1.290545E-05 -2.054299E-08 -3.101393E-08
       811   1  4.222905E-05  9.000026E+00 -9.314111E-08  6.201626E-06  4.145526E-08 -2.269303E-08
       811   2  3.487975E-05  9.000021E+00  8.540391E-08  6.348486E-06 -2.449743E-08 -2.401028E-08
       811   3  2.637338E-05  9.000012E+00  1.376007E-07  6.520301E-06 -9.045010E-08 -1.553862E-08
       811   4  4.405217E-05  9.000026E+00 -1.989718E-07  9.953589E-06  3.307768E-08  3.569772E-09
       811   5  3.682796E-05  9.000021E+00  5.564441E-09  1.024380E-05 -2.942816E-08 -2.907896E-09
       811   6  2.843689E-05  9.000012E+00  6.091171E-08  1.055897E-05 -9.193398E-08  4.033321E-10
       811   7  4.709422E-05  9.000026E+00 -8.303707E-08  1.375123E-05  3.705169E-08  2.983258E-08
       811   8  3.997039E-05  9.000021E+00  8.984970E-08  1.418479E-05 -2.200732E-08  1.819448E-08
       811   9  3.166991E-05  9.000012E+00  9.070673E-08  1.464330E-05 -8.106630E-08  1.634530E-08
       811  10  4.250177E-05  9.000026E+00 -6.083732E-08  6.159613E-06 -3.483486E-16  1.765823E-15
       811  11  3.511888E-05  9.000021E+00  8.411119E-08  6.305387E-06 -1.722314E-18 -2.227174E-15
       811  12  2.657892E-05  9.000012E+00  1.027115E-07  6.476116E-06 -4.442463E-15 -9.771211E-16
       811  13  4.432300E-05  9.000026E+00 -1.674823E-07  9.900377E-06 -4.382580E-15  5.303614E-15
       811  14  3.706519E-05  9.000021E+00  3.457448E-09  1.018950E-05 -6.888975E-15  1.967165E-15
       811  15  2.864052E-05  9.000012E+00  2.520817E-08  1.050358E-05 -5.149161E-15  1.341307E-15
       811  16  4.736315E-05  9.000025E+00 -5.236182E-08  1.368681E-05 -6.698223E-15  7.986174E-15
       811  17  4.020572E-05  9.000021E+00  8.692842E-08  1.411929E-05 -8.416218E-15 -1.198975E-15
       811  18  3.187165E-05  9.000012E+00  5.418894E-08  1.457672E-05 -3.777178E-15 -1.485010E-15
       811  19  4.222905E-05  9.000026E+00 -9.314110E-08  6.201626E-06 -4.145525E-08  2.269305E-08
       811  20  3.487975E-05  9.000021E+00  8.540391E-08  6.348486E-06  2.449743E-08  2.401028E-08
       811  21  2.637338E-05  9.000012E+00  1.376007E-07  6.520301E-06  9.045009E-08  1.553863E-08
       811  22  4.405217E-05  9.000026E+00 -1.989718E-07  9.953589E-06 -3.307769E-08 -3.569771E-09
       811  23  3.682796E-05  9.000021E+00  5.564436E-09  1.024380E-05  2.942815E-08  2.907894E-09
       811  24  2.843689E-05  9.000012E+00  6.091169E-08  1.055897E-05  9.193398E-08 -4.033307E-10
       811  25  4.709422E-05  9.000026E+00 -8.303712E-08  1.375123E-05 -3.705170E-08 -2.983258E-08
       811  26  3.997039E-05  9.000021E+00  8.984969E-08  1.418479E-05  2.200730E-08 -1.819449E-08
       811  27  3.166991E-05  9.000012E+00  9.070675E-08  1.464330E-05  8.106629E-08 -1.634529E-08
       812   1  2.090456E-05  9.000005E+00 -2.771138E-07  6.310563E-06  1.669666E-07 -6.739155E-09
       812   2  1.541618E-05  8.999989E+00  2.104021E-07  5.404630E-06 -2.407292E-08 -1.034059E-09
       812   3  7.274874E-06  8.999965E+00 -2.116558E-07  4.393478E-06 -2.151124E-07 -1.042396E-08
       812   4  2.301222E-05  9.000005E+00 -3.389543E-07  1.021451E-05  1.606009E-07  4.811946E-09
       812   5  1.756466E-05  8.999989E+00  2.289210E-07  8.753471E-06 -3.015914E-08  5.883719E-10
       812   6  9.479279E-06  8.999966E+00 -7.755581E-08  7.187214E-06 -2.209192E-07 -1.873023E-08
       812   7  2.623991E-05  9.000006E+00 -3.375161E-07  1.420986E-05  1.617267E-07  1.636305E-08
       812   8  2.081819E-05  8.999990E+00  2.757580E-07  1.219372E-05 -2.875379E-08  2.210791E-09
       812   9  1.277375E-05  8.999967E+00  4.990162E-08  1.007236E-05 -2.192343E-07 -2.703648E-08
       812  10  2.127874E-05  9.000005E+00 -2.499755E-07  6.270959E-06 -4.861327E-15  3.183347E-15
       812  11  1.576233E-05  8.999988E+00  2.095146E-07  5.370896E-06 -1.061587E-14  1.899144E-16
       812  12  7.592998E-06  8.999964E+00 -2.405690E-07  4.365615E-06 -6.639928E-15 -1.632706E-15
       812  13  2.339667E-05  9.000005E+00 -3.074133E-07  1.016556E-05 -2.707896E-15  3.285180E-15
       812  14  1.792108E-05  8.999989E+00  2.324362E-07  8.710395E-06 -1.041858E-14  4.689674E-15
       812  15  9.807675E-06  8.999965E+00 -1.020664E-07  7.150009E-06 -1.638339E-14  1.042004E-15
       812  16  2.663463E-05  9.000005E+00 -3.015724E-07  1.415157E-05 -4.211091E-15  2.786243E-15
       812  17  2.118489E-05  8.999990E+00  2.836759E-07  1.214130E-05 -5.346733E-15  6.003032E-15
       812  18  1.311242E-05  8.999967E+00  2.979374E-08  1.002581E-05 -1.634777E-14  2.542493E-15
       812  19  2.090456E-05  9.000005E+00 -2.771138E-07  6.310563E-06 -1.669666E-07  6.739172E-09
       812  20  1.541618E-05  8.999989E+00  2.104021E-07  5.404630E-06  2.407291E-08  1.034062E-09
       812  21  7.274874E-06  8.999965E+00 -2.116558E-07  4.393478E-06  2.151124E-07  1.042396E-08
       812  22  2.301222E-05  9.000005E+00 -3.389543E-07  1.021451E-05 -1.606009E-07 -4.811951E-09
       812  23  1.756466E-05  8.999989E+00  2.289210E-07  8.753471E-06  3.015912E-08 -5.883611E-10
       812  24  9.479279E-06  8.999966E+00 -7.755583E-08  7.187214E-06  2.209191E-07  1.873023E-08
       812  25  2.623991E-05  9.000006E+00 -3.375161E-07  1.420986E-05 -1.617267E-07 -1.636306E-08
       812  26  2.081819E-05  8.999990E+00  2.757580E-07  1.219372E-05  2.875377E-08 -2.210777E-09
       812  27  1.277375E-05  8.999967E+00  4.990164E-08  1.007236E-05  2.192343E-07  2.703649E-08
       813   1  4.115751E-06  8.999948E+00 -3.226372E-07  3.429246E-06  2.349696E-07  1.817902E-09
       813   2  3.255251E-06  8.999914E+00  4.007989E-07  2.048948E-06  1.669316E-08  3.217902E-08
       813   3 -9.638149E-07  8.999871E+00 -2.612978E-07  7.838095E-07 -2.015832E-07  1.476059E-08
       813   4  6.196147E-06  8.999949E+00 -2.730421E-07  5.683338E-06  2.428409E-07 -7.456139E-09
       813   5  5.290297E-06  8.999915E+00  2.717666E-07  3.352410E-06  2.119752E-08  2.950799E-08
       813   6  1.073661E-06  8.999871E+00 -4.574719E-07  1.136642E-06 -2.004458E-07  1.869255E-08
       813   7  9.182912E-06  8.999950E+00 -3.157543E-07  7.859666E-06  2.494785E-07 -1.673016E-08
       813   8  8.234180E-06  8.999916E+00  5.618428E-08  4.578108E-06  2.446816E-08  2.683696E-08
       813   9  4.022441E-06  8.999871E+00 -7.344388E-07  1.411710E-06 -2.005421E-07  2.262453E-08
       813  10  4.505988E-06  8.999948E+00 -3.236079E-07  3.426922E-06 -4.899321E-15  1.504405E-15
       813  11  3.655692E-06  8.999914E+00  4.100324E-07  2.062016E-06 -7.173634E-15  8.290251E-17
       813  12 -5.531691E-07  8.999870E+00 -2.418601E-07  8.122701E-07 -1.072416E-14 -5.334490E-15
       813  13  6.613321E-06  8.999949E+00 -2.624687E-07  5.684415E-06 -1.025661E-14 -9.643877E-16
       813  14  5.717675E-06  8.999915E+00  2.925442E-07  3.368880E-06 -2.264758E-15  2.943980E-15
       813  15  1.511243E-06  8.999871E+00 -4.264902E-07  1.168504E-06 -1.706010E-15  5.956794E-16
       813  16  9.627022E-06  8.999950E+00 -2.936367E-07  7.864145E-06 -1.114045E-14  1.107334E-15
       813  17  8.688494E-06  8.999915E+00  8.850599E-08  4.597980E-06 -2.279039E-15  2.943577E-15
       813  18  4.486959E-06  8.999871E+00 -6.919129E-07  1.446974E-06  7.341267E-16  4.783651E-15
       813  19  4.115751E-06  8.999948E+00 -3.226372E-07  3.429246E-06 -2.349696E-07 -1.817887E-09
       813  20  3.255251E-06  8.999914E+00  4.007989E-07  2.048948E-06 -1.669318E-08 -3.217902E-08
       813  21 -9.638150E-07  8.999871E+00 -2.612979E-07  7.838095E-07  2.015832E-07 -1.476060E-08
       813  22  6.196147E-06  8.999949E+00 -2.730421E-07  5.683338E-06 -2.428409E-07  7.456122E-09
       813  23  5.290297E-06  8.999915E+00  2.717666E-07  3.352410E-06 -2.119755E-08 -2.950799E-08
       813  24  1.073661E-06  8.999871E+00 -4.574720E-07  1.136642E-06  2.004458E-07 -1.869255E-08
       813  25  9.182912E-06  8.999950E+00 -3.157543E-07  7.859666E-06 -2.494785E-07  1.673015E-08
       813  26  8.234180E-06  8.999916E+00  5.618429E-08  4.578108E-06 -2.446819E-08 -2.683695E-08
       813  27  4.022441E-06  8.999871E+00 -7.344388E-07  1.411710E-06  2.005421E-07 -2.262451E-08
       814   1 -5.261134E-07  8.999842E+00  8.339359E-08  2.993639E-07  1.347588E-07 -1.752304E-08
       814   2 -2.072111E-07  8.999790E+00 -4.388895E-08  1.349796E-07  1.646887E-08 -5.598168E-08
       814   3 -1.184809E-06  8.999733E+00 -1.427827E-07 -1.870475E-07 -1.018210E-07 -5.691288E-08
       814   4  1.927903E-06  8.999843E+00  1.221409E-07  3.312060E-07  1.197301E-07 -8.933703E-09
       814   5  2.032857E-06  8.999790E+00  6.029580E-08  4.191608E-07  3.345762E-08 -3.799025E-08
       814   6  8.037843E-07  8.999733E+00 -6.072454E-08  3.494727E-07 -5.281488E-08 -2.951938E-08
       814   7  5.917863E-06  8.999844E+00  3.589961E-07  3.532549E-07  9.583394E-08 -3.443552E-10
       814   8  5.826604E-06  8.999791E+00  4.039703E-07  6.935487E-07  4.157882E-08 -1.999883E-08
       814   9  4.363791E-06  8.999734E+00  3.022052E-07  8.761997E-07 -1.267632E-08 -2.125864E-09
       814  10 -2.913904E-07  8.999842E+00  3.420903E-08  3.458617E-07 -7.659870E-15 -2.238600E-15
       814  11  5.804126E-08  8.999790E+00 -6.254412E-08  1.914177E-07 -3.167041E-15  5.038023E-16
       814  12 -8.890271E-07  8.999733E+00 -1.309085E-07 -1.206692E-07  4.796302E-15 -1.945904E-15
       814  13  2.180021E-06  8.999842E+00  8.041161E-08  3.878803E-07 -7.879782E-15 -7.781228E-16
       814  14  2.315505E-06  8.999790E+00  4.909581E-08  4.857753E-07  1.254098E-16  2.509158E-15
       814  15  1.116961E-06  8.999733E+00 -4.139523E-08  4.260274E-07  1.282155E-14 -1.286818E-15
       814  16  6.187377E-06  8.999843E+00  3.247220E-07  4.201055E-07 -1.679791E-15  5.101484E-15
       814  17  6.126647E-06  8.999791E+00  4.002255E-07  7.703396E-07  3.711697E-15  3.103166E-16
       814  18  4.694363E-06  8.999733E+00  3.289898E-07  9.629308E-07  4.394223E-15 -3.853819E-15
       814  19 -5.261134E-07  8.999842E+00  8.339358E-08  2.993640E-07 -1.347588E-07  1.752305E-08
       814  20 -2.072111E-07  8.999790E+00 -4.388895E-08  1.349797E-07 -1.646887E-08  5.598168E-08
       814  21 -1.184809E-06  8.999733E+00 -1.427826E-07 -1.870475E-07  1.018210E-07  5.691288E-08
       814  22  1.927903E-06  8.999843E+00  1.221409E-07  3.312061E-07 -1.197301E-07  8.933689E-09
       814  23  2.032857E-06  8.999790E+00  6.029579E-08  4.191608E-07 -3.345762E-08  3.799025E-08
       814  24  8.037843E-07  8.999733E+00 -6.072456E-08  3.494727E-07  5.281489E-08  2.951937E-08
       814  25  5.917863E-06  8.999844E+00  3.589961E-07  3.532549E-07 -9.583395E-08  3.443453E-10
       814  26  5.826604E-06  8.999791E+00  4.039703E-07  6.935487E-07 -4.157878E-08  1.999883E-08
       814  27  4.363791E-06  8.999734E+00  3.022053E-07  8.761997E-07  1.267634E-08  2.125865E-09
       815   1 -1.025227E-06  8.999698E+00  9.123037E-08 -4.819197E-07  6.408333E-08  1.150291E-08
       815   2 -2.327806E-07  8.999636E+00  2.584408E-07 -4.146449E-07  1.249896E-08  6.338257E-08
       815   3 -8.265990E-07  8.999570E+00 -2.373963E-07 -9.098069E-07 -3.908536E-08 -1.325126E-07
       815   4  2.901996E-07  8.999698E+00 -1.179497E-07  8.614060E-09  1.570770E-07  3.559222E-08
       815   5  2.896472E-07  8.999636E+00 -3.487026E-08 -2.383977E-07  3.518332E-08  6.671502E-08
       815   6 -8.493952E-07  8.999569E+00 -3.669718E-08 -1.047846E-06 -8.671040E-08 -1.499370E-07
       815   7  2.003855E-06  8.999698E+00 -4.932835E-07  5.262954E-07  2.086309E-07  5.968154E-08
       815   8  1.293183E-06  8.999635E+00 -3.009492E-07 -3.500310E-08  1.642789E-08  7.004747E-08
       815   9 -3.082038E-07  8.999569E+00  3.846198E-07 -1.158738E-06 -1.757752E-07 -1.673614E-07
       815  10 -9.088086E-07  8.999698E+00  4.293223E-08 -3.723498E-07  4.872203E-15 -2.115576E-15
       815  11 -4.647404E-08  8.999636E+00  2.800308E-07 -2.648915E-07 -3.444480E-15 -3.335071E-15
       815  12 -5.704043E-07  8.999570E+00 -1.459182E-07 -7.198699E-07 -1.469612E-15 -3.931642E-16
       815  13  4.769392E-07  8.999698E+00 -1.361102E-07  1.414800E-07  1.545157E-14 -2.904432E-15
       815  14  5.462750E-07  8.999636E+00  1.685737E-08 -6.534828E-08  2.727020E-15 -8.108884E-16
       815  15 -5.228794E-07  8.999569E+00  8.491854E-08 -8.346134E-07 -9.501888E-15 -5.007681E-16
       815  16  2.260916E-06  8.999698E+00 -4.813063E-07  6.824573E-07  1.028626E-14 -2.105503E-15
       815  17  1.620132E-06  8.999635E+00 -2.190839E-07  1.613424E-07  1.489904E-14  2.579809E-15
       815  18  8.863319E-08  8.999570E+00  5.363732E-07 -9.222094E-07 -4.087171E-15  1.109410E-15
       815  19 -1.025227E-06  8.999698E+00  9.123036E-08 -4.819197E-07 -6.408330E-08 -1.150291E-08
       815  20 -2.327806E-07  8.999636E+00  2.584408E-07 -4.146448E-07 -1.249898E-08 -6.338257E-08
       815  21 -8.265990E-07  8.999570E+00 -2.373963E-07 -9.098069E-07  3.908538E-08  1.325126E-07
       815  22  2.901996E-07  8.999698E+00 -1.179497E-07  8.614078E-09 -1.570770E-07 -3.559224E-08
       815  23  2.896472E-07  8.999636E+00 -3.487026E-08 -2.383977E-07 -3.518331E-08 -6.671502E-08
       815  24 -8.493953E-07  8.999569E+00 -3.669718E-08 -1.047846E-06  8.671037E-08  1.499370E-07
       815  25  2.003855E-06  8.999698E+00 -4.932835E-07  5.262954E-07 -2.086309E-07 -5.968156E-08
       815  26  1.293183E-06  8.999635E+00 -3.009492E-07 -3.500304E-08 -1.642786E-08 -7.004746E-08
       815  27 -3.082039E-07  8.999569E+00  3.846199E-07 -1.158738E-06  1.757752E-07  1.673614E-07
       901   1 -1.465425E-06  8.999567E+00 -6.045868E-07  1.515305E-06  1.631346E-07 -2.188390E-07
       901   2  3.265055E-06  8.999638E+00  7.833238E-07 -8.333327E-07 -2.383402E-10  7.654104E-08
       901   3  4.214883E-06  8.999699E+00  3.463956E-09 -1.490350E-06 -1.636113E-07  2.965332E-08
       901   4 -1.108733E-06  8.999569E+00 -1.023312E-07  3.910048E-07  3.229541E-09 -3.156081E-07
       901   5  4.972133E-06  8.999638E+00  2.311662E-07 -2.774411E-06  9.240420E-09  5.360555E-08
       901   6  7.614614E-06  8.999698E+00 -8.044820E-07 -4.248207E-06  1.525130E-08  8.055145E-08
       901   7  4.660722E-07  8.999571E+00  4.199899E-07 -1.091651E-06 -1.576849E-07 -4.123772E-07
       901   8  7.899343E-06  8.999639E+00 -2.962156E-07 -5.073845E-06  1.770982E-08  3.067010E-08
       901   9  1.223650E-05  8.999697E+00 -1.582942E-06 -7.364419E-06  1.931046E-07  1.314496E-07
       901  10 -1.291361E-06  8.999566E+00 -7.616160E-07  1.040427E-06  2.455175E-14 -2.448644E-15
       901  11  3.524453E-06  8.999638E+00  7.116287E-07 -1.052822E-06  1.646317E-14 -1.537137E-15
       901  12  4.559615E-06  8.999699E+00  1.710267E-08 -1.454452E-06  1.378422E-14 -5.190594E-16
       901  13 -4.877396E-07  8.999568E+00 -6.781909E-08 -5.542862E-08  1.732175E-14 -2.770089E-15
       901  14  5.678460E-06  8.999638E+00  3.510123E-07 -2.965456E-06  1.555896E-14  4.545541E-15
       901  15  8.406276E-06  8.999698E+00 -5.993021E-07 -4.183864E-06  1.987893E-14  2.158164E-15
       901  16  1.533995E-06  8.999570E+00  6.460431E-07 -1.509639E-06  1.242596E-14 -2.554874E-14
       901  17  9.052600E-06  8.999638E+00  1.517159E-08 -5.236445E-06  1.616471E-14  1.030265E-14
       901  18  1.347509E-05  8.999697E+00 -1.186221E-06 -7.271631E-06  2.418799E-14  7.690381E-15
       901  19 -1.465426E-06  8.999567E+00 -6.045869E-07  1.515305E-06 -1.631346E-07  2.188390E-07
       901  20  3.265055E-06  8.999638E+00  7.833238E-07 -8.333327E-07  2.383853E-10 -7.654104E-08
       901  21  4.214883E-06  8.999699E+00  3.463947E-09 -1.490350E-06  1.636113E-07 -2.965332E-08
       901  22 -1.108734E-06  8.999569E+00 -1.023313E-07  3.910048E-07 -3.229519E-09  3.156081E-07
       901  23  4.972133E-06  8.999638E+00  2.311662E-07 -2.774411E-06 -9.240390E-09 -5.360556E-08
       901  24  7.614614E-06  8.999698E+00 -8.044820E-07 -4.248207E-06 -1.525126E-08 -8.055146E-08
       901  25  4.660721E-07  8.999571E+00  4.199898E-07 -1.091651E-06  1.576849E-07  4.123772E-07
       901  26  7.899343E-06  8.999639E+00 -2.962156E-07 -5.073845E-06 -1.770980E-08 -3.067008E-08
       901  27  1.223650E-05  8.999697E+00 -1.582942E-06 -7.364419E-06 -1.931045E-07 -1.314496E-07
       902   1  6.672595E-06  8.999733E+00  1.102622E-07 -1.310448E-06  6.807435E-08 -8.268363E-08
       902   2  7.496788E-06  8.999789E+00 -4.492201E-07 -6.889384E-07 -7.371606E-09 -1.296165E-07
       902   3  8.445874E-06  8.999844E+00  2.835959E-07 -3.426466E-07 -8.281753E-08 -6.610499E-08
       902   4  1.260423E-05  8.999732E+00  3.027757E-07 -3.185337E-06  2.932000E-07 -1.446464E-08
       902   5  1.333063E-05  8.999789E+00 -1.648894E-07 -1.338693E-06  1.129146E-07 -7.570813E-08
       902   6  1.407148E-05  8.999844E+00  4.020404E-07  2.327325E-07 -6.737076E-08 -2.650727E-08
       902   7  2.085851E-05  8.999732E+00  9.969591E-07 -4.910877E-06  5.188463E-07  5.375440E-08
       902   8  2.148608E-05  8.999790E+00  6.186811E-07 -1.839099E-06  2.337215E-07 -2.179973E-08
       902   9  2.201765E-05  8.999846E+00  1.017295E-06  9.574605E-07 -5.140327E-08  1.309050E-08
       902  10  6.933278E-06  8.999733E+00  9.919748E-08 -1.186455E-06  9.909216E-15 -3.160380E-15
       902  11  7.740200E-06  8.999788E+00 -4.775558E-07 -6.849919E-07  2.637532E-15 -3.507081E-15
       902  12  8.672016E-06  8.999843E+00  2.379891E-07 -4.587463E-07  1.264981E-14 -6.139580E-15
       902  13  1.265483E-05  8.999732E+00  2.016764E-07 -3.067101E-06  1.273033E-14  1.175991E-15
       902  14  1.336396E-05  8.999788E+00 -2.832597E-07 -1.340504E-06  4.355311E-15 -1.191189E-15
       902  15  1.408754E-05  8.999844E+00  2.663990E-07  1.108757E-07  1.525532E-14  1.843165E-15
       902  16  2.069903E-05  8.999732E+00  8.058251E-07 -4.798398E-06  1.609592E-14  2.093281E-16
       902  17  2.130933E-05  8.999789E+00  4.102761E-07 -1.846667E-06  2.143118E-15  1.715341E-15
       902  18  2.182363E-05  8.999845E+00  7.916186E-07  8.298467E-07  1.057654E-14 -5.921986E-15
       902  19  6.672595E-06  8.999733E+00  1.102621E-07 -1.310448E-06 -6.807433E-08  8.268365E-08
       902  20  7.496788E-06  8.999789E+00 -4.492201E-07 -6.889384E-07  7.371608E-09  1.296165E-07
       902  21  8.445875E-06  8.999844E+00  2.835959E-07 -3.426466E-07  8.281755E-08  6.610500E-08
       902  22  1.260423E-05  8.999732E+00  3.027757E-07 -3.185337E-06 -2.931999E-07  1.446463E-08
       902  23  1.333063E-05  8.999789E+00 -1.648894E-07 -1.338693E-06 -1.129146E-07  7.570811E-08
       902  24  1.407148E-05  8.999844E+00  4.020404E-07  2.327325E-07  6.737080E-08  2.650727E-08
       902  25  2.085851E-05  8.999732E+00  9.969590E-07 -4.910877E-06 -5.188463E-07 -5.375441E-08
       902  26  2.148608E-05  8.999790E+00  6.186811E-07 -1.839099E-06 -2.337215E-07  2.179973E-08
       902  27  2.201765E-05  8.999846E+00  1.017295E-06  9.574605E-07  5.140329E-08 -1.309047E-08
       903   1  6.905650E-06  8.999873E+00 -2.735446E-07 -1.686631E-06  1.901521E-07  1.644233E-08
       903   2  1.119665E-05  8.999918E+00  6.534735E-07 -5.260967E-06 -3.310348E-08  7.743807E-08
       903   3  1.130718E-05  8.999951E+00 -4.281875E-07 -9.108523E-06 -2.563591E-07  2.299287E-09
       903   4  1.166469E-05  8.999874E+00 -6.181123E-07 -1.516794E-06  1.572305E-07  4.506008E-08
       903   5  1.585519E-05  8.999920E+00  3.307662E-07 -6.380816E-06 -5.662822E-08  8.263379E-08
       903   6  1.600134E-05  8.999954E+00 -4.113870E-07 -1.151806E-05 -2.704869E-07 -1.592700E-08
       903   7  1.729064E-05  8.999875E+00 -1.095757E-06 -1.183366E-06  1.300038E-07  7.367785E-08
       903   8  2.136925E-05  8.999922E+00 -1.515951E-07 -7.337074E-06 -7.445797E-08  8.782955E-08
       903   9  2.153963E-05  8.999957E+00 -5.808173E-07 -1.376400E-05 -2.789197E-07 -3.415326E-08
       903  10  7.415721E-06  8.999873E+00 -2.068512E-07 -1.796694E-06  1.356785E-14 -1.286487E-14
       903  11  1.166756E-05  8.999918E+00  6.810034E-07 -5.312932E-06  8.256626E-15 -6.702256E-15
       903  12  1.173892E-05  8.999951E+00 -4.398211E-07 -9.102389E-06  1.259373E-14  8.755091E-15
       903  13  1.227644E-05  8.999874E+00 -5.078453E-07 -1.639911E-06  1.879329E-14 -8.164981E-16
       903  14  1.642777E-05  8.999919E+00  4.018698E-07 -6.445834E-06  9.475015E-15 -4.158759E-16
       903  15  1.653476E-05  8.999953E+00 -3.794470E-07 -1.152498E-05  1.271930E-14  1.155969E-14
       903  16  1.800406E-05  8.999875E+00 -9.419169E-07 -1.319538E-06  1.631376E-14 -8.477080E-15
       903  17  2.204350E-05  8.999921E+00 -3.691800E-08 -7.415148E-06  2.855675E-15 -1.886978E-15
       903  18  2.217472E-05  8.999956E+00 -5.053035E-07 -1.378398E-05  8.289190E-15  6.198429E-15
       903  19  6.905650E-06  8.999873E+00 -2.735446E-07 -1.686631E-06 -1.901521E-07 -1.644232E-08
       903  20  1.119665E-05  8.999918E+00  6.534735E-07 -5.260967E-06  3.310350E-08 -7.743806E-08
       903  21  1.130718E-05  8.999951E+00 -4.281876E-07 -9.108523E-06  2.563591E-07 -2.299250E-09
       903  22  1.166469E-05  8.999874E+00 -6.181123E-07 -1.516794E-06 -1.572304E-07 -4.506007E-08
       903  23  1.585519E-05  8.999920E+00  3.307662E-07 -6.380816E-06  5.662824E-08 -8.263380E-08
       903  24  1.600134E-05  8.999954E+00 -4.113870E-07 -1.151806E-05  2.704869E-07  1.592702E-08
       903  25  1.729064E-05  8.999875E+00 -1.095757E-06 -1.183366E-06 -1.300038E-07 -7.367786E-08
       903  26  2.136925E-05  8.999922E+00 -1.515951E-07 -7.337074E-06  7.445797E-08 -8.782955E-08
       903  27  2.153963E-05  8.999957E+00 -5.808172E-07 -1.376400E-05  2.789197E-07  3.415330E-08
       904   1  1.473647E-05  8.999968E+00 -2.895608E-07 -1.171007E-05  2.243998E-07 -3.313787E-08
       904   2  2.303835E-05  8.999991E+00  1.552656E-07 -1.424911E-05  3.324412E-08 -7.796881E-09
       904   3  2.871238E-05  9.000006E+00 -2.287473E-07 -1.657966E-05 -1.579115E-07 -7.076913E-09
       904   4  1.991773E-05  8.999970E+00  1.856887E-08 -1.465738E-05  2.403917E-07 -5.240349E-08
       904   5  2.805466E-05  8.999992E+00  2.151136E-07 -1.760407E-05  4.663649E-08 -7.212224E-09
       904   6  3.358837E-05  9.000007E+00 -3.597320E-07 -2.034226E-05 -1.471188E-07  1.335802E-08
       904   7  2.642205E-05  8.999973E+00  3.536265E-07 -1.781258E-05  2.435566E-07 -7.166910E-08
       904   8  3.441968E-05  8.999994E+00  3.617491E-07 -2.116691E-05  4.720178E-08 -6.627548E-09
       904   9  3.983871E-05  9.000007E+00 -3.440693E-07 -2.431276E-05 -1.491531E-07  3.379299E-08
       904  10  1.503036E-05  8.999967E+00 -3.582737E-07 -1.162760E-05  8.563582E-15  5.705687E-15
       904  11  2.338344E-05  8.999990E+00  1.377454E-07 -1.415935E-05 -1.057919E-15 -4.963950E-15
       904  12  2.910866E-05  9.000006E+00 -1.950751E-07 -1.648262E-05 -4.004373E-15 -4.888036E-15
       904  13  2.022437E-05  8.999970E+00 -4.468155E-08 -1.455785E-05  1.595342E-14  1.553741E-14
       904  14  2.841249E-05  8.999992E+00  2.030557E-07 -1.749725E-05  5.967322E-15  7.904434E-16
       904  15  3.399739E-05  9.000006E+00 -3.205974E-07 -2.022816E-05 -7.522553E-17 -3.152393E-15
       904  16  2.674143E-05  8.999973E+00  2.958384E-07 -1.769598E-05  1.343878E-14  8.464593E-15
       904  17  3.479026E-05  8.999994E+00  3.551536E-07 -2.104303E-05  8.920320E-15  8.708542E-15
       904  18  4.026047E-05  9.000007E+00 -2.994723E-07 -2.418159E-05  5.556652E-15 -4.365028E-15
       904  19  1.473647E-05  8.999968E+00 -2.895608E-07 -1.171007E-05 -2.243998E-07  3.313791E-08
       904  20  2.303835E-05  8.999991E+00  1.552657E-07 -1.424911E-05 -3.324412E-08  7.796873E-09
       904  21  2.871238E-05  9.000006E+00 -2.287473E-07 -1.657966E-05  1.579115E-07  7.076907E-09
       904  22  1.991773E-05  8.999970E+00  1.856885E-08 -1.465738E-05 -2.403917E-07  5.240353E-08
       904  23  2.805466E-05  8.999992E+00  2.151136E-07 -1.760407E-05 -4.663648E-08  7.212216E-09
       904  24  3.358837E-05  9.000007E+00 -3.597320E-07 -2.034226E-05  1.471188E-07 -1.335804E-08
       904  25  2.642205E-05  8.999973E+00  3.536265E-07 -1.781258E-05 -2.435566E-07  7.166912E-08
       904  26  3.441968E-05  8.999994E+00  3.617491E-07 -2.116691E-05 -4.720177E-08  6.627553E-09
       904  27  3.983871E-05  9.000007E+00 -3.440693E-07 -2.431276E-05  1.491531E-07 -3.379298E-08
       905   1  3.415496E-05  9.000013E+00  2.161837E-07 -1.704340E-05  7.730182E-08 -2.020800E-08
       905   2  4.217555E-05  9.000021E+00  6.788730E-08 -1.643751E-05  2.190732E-08 -3.321384E-08
       905   3  4.921420E-05  9.000025E+00 -7.172057E-08 -1.594604E-05 -3.348718E-08 -1.996678E-08
       905   4  3.894994E-05  9.000013E+00  7.768853E-08 -2.088911E-05  7.274994E-08  6.082139E-09
       905   5  4.669919E-05  9.000020E+00 -2.525812E-08 -2.003882E-05  2.650159E-08 -6.652648E-09
       905   6  5.344025E-05  9.000024E+00 -1.807729E-07 -1.930296E-05 -1.974675E-08  6.865456E-09
       905   7  4.496345E-05  9.000013E+00  5.123744E-08 -2.480908E-05  5.199995E-08  3.237231E-08
       905   8  5.247376E-05  9.000020E+00  6.923181E-08 -2.371440E-05  1.489773E-08  1.990856E-08
       905   9  5.894963E-05  9.000024E+00 -2.659865E-08 -2.273415E-05 -2.220448E-08  3.369773E-08
       905  10  3.435714E-05  9.000013E+00  1.812945E-07 -1.693907E-05  2.573903E-16 -8.919628E-15
       905  11  4.241448E-05  9.000020E+00  6.974888E-08 -1.633616E-05  3.672470E-15 -6.603867E-15
       905  12  4.948988E-05  9.000025E+00 -3.310826E-08 -1.584768E-05  2.923892E-15 -9.998959E-16
       905  13  3.914689E-05  9.000012E+00  4.056043E-08 -2.077253E-05 -3.369229E-16 -2.551722E-15
       905  14  4.693289E-05  9.000020E+00 -2.563547E-08 -1.992523E-05  1.447779E-15 -5.210361E-16
       905  15  5.371071E-05  9.000024E+00 -1.443996E-07 -1.919235E-05  1.645302E-15  9.519051E-15
       905  16  4.515518E-05  9.000013E+00  1.187036E-08 -2.468025E-05 -1.436099E-16 -1.064022E-14
       905  17  5.270224E-05  9.000020E+00  6.661549E-08 -2.358856E-05  3.214483E-15 -3.010236E-15
       905  18  5.921486E-05  9.000023E+00  7.535833E-09 -2.261129E-05  1.851382E-15  4.902958E-16
       905  19  3.415496E-05  9.000013E+00  2.161837E-07 -1.704340E-05 -7.730182E-08  2.020801E-08
       905  20  4.217555E-05  9.000021E+00  6.788732E-08 -1.643751E-05 -2.190732E-08  3.321383E-08
       905  21  4.921420E-05  9.000025E+00 -7.172056E-08 -1.594604E-05  3.348717E-08  1.996679E-08
       905  22  3.894994E-05  9.000013E+00  7.768851E-08 -2.088911E-05 -7.274996E-08 -6.082145E-09
       905  23  4.669919E-05  9.000020E+00 -2.525812E-08 -2.003882E-05 -2.650159E-08  6.652640E-09
       905  24  5.344025E-05  9.000024E+00 -1.807730E-07 -1.930296E-05  1.974677E-08 -6.865446E-09
       905  25  4.496345E-05  9.000013E+00  5.123742E-08 -2.480908E-05 -5.199995E-08 -3.237234E-08
       905  26  5.247376E-05  9.000020E+00  6.923180E-08 -2.371440E-05 -1.489774E-08 -1.990857E-08
       905  27  5.894963E-05  9.000024E+00 -2.659868E-08 -2.273415E-05  2.220448E-08 -3.369770E-08
       906   1  5.367690E-05  9.000027E+00  1.755707E-07 -1.493557E-05 -2.130343E-08 -1.983215E-08
       906   2  5.937579E-05  9.000028E+00 -2.137680E-08 -1.268852E-05  9.664265E-09 -3.419846E-08
       906   3  6.495273E-05  9.000029E+00  4.624983E-08 -1.073159E-05  4.063196E-08 -2.476263E-08
       906   4  5.771401E-05  9.000026E+00  7.547772E-08 -1.804791E-05 -1.797547E-08  6.937807E-09
       906   5  6.299387E-05  9.000027E+00 -1.006260E-07 -1.531875E-05  1.354474E-08 -7.913671E-09
       906   6  6.812797E-05  9.000027E+00 -6.769397E-08 -1.287972E-05  4.506496E-08  1.036981E-09
       906   7  6.270035E-05  9.000025E+00  1.256271E-07 -2.116813E-05 -2.569468E-08  3.370777E-08
       906   8  6.758326E-05  9.000025E+00  2.192042E-08 -1.795687E-05  6.378061E-09  1.837113E-08
       906   9  7.229661E-05  9.000026E+00  7.171137E-08 -1.503574E-05  3.845080E-08  2.683663E-08
       906  10  5.378637E-05  9.000027E+00  1.531027E-07 -1.485390E-05 -1.511413E-15 -3.265519E-15
       906  11  5.950957E-05  9.000028E+00 -1.953437E-08 -1.261536E-05 -3.777524E-15 -6.736227E-15
       906  12  6.511082E-05  9.000028E+00  7.240257E-08 -1.066694E-05  8.855984E-18 -5.671590E-15
       906  13  5.780859E-05  9.000025E+00  4.662625E-08 -1.795814E-05  1.194011E-15  1.224445E-14
       906  14  6.311275E-05  9.000026E+00 -1.051672E-07 -1.523749E-05  1.270398E-15 -1.241229E-15
       906  15  6.827116E-05  9.000027E+00 -4.792481E-08 -1.280697E-05  4.219752E-15 -5.155170E-15
       906  16  6.278003E-05  9.000024E+00  9.039197E-08 -2.107026E-05  2.607545E-15 -9.138307E-16
       906  17  6.768725E-05  9.000025E+00  1.099568E-08 -1.786751E-05  4.533680E-15  2.170312E-16
       906  18  7.242491E-05  9.000026E+00  8.509702E-08 -1.495488E-05  5.522442E-15 -1.507473E-14
       906  19  5.367690E-05  9.000027E+00  1.755707E-07 -1.493557E-05  2.130343E-08  1.983217E-08
       906  20  5.937579E-05  9.000028E+00 -2.137677E-08 -1.268852E-05 -9.664268E-09  3.419845E-08
       906  21  6.495273E-05  9.000029E+00  4.624982E-08 -1.073159E-05 -4.063196E-08  2.476263E-08
       906  22  5.771401E-05  9.000026E+00  7.547772E-08 -1.804791E-05  1.797547E-08 -6.937781E-09
       906  23  6.299387E-05  9.000027E+00 -1.006260E-07 -1.531875E-05 -1.354474E-08  7.913664E-09
       906  24  6.812797E-05  9.000027E+00 -6.769399E-08 -1.287972E-05 -4.506496E-08 -1.037001E-09
       906  25  6.270035E-05  9.000025E+00  1.256271E-07 -2.116813E-05  2.569469E-08 -3.370776E-08
       906  26  6.758326E-05  9.000025E+00  2.192043E-08 -1.795687E-05 -6.378056E-09 -1.837113E-08
       906  27  7.229661E-05  9.000026E+00  7.171139E-08 -1.503574E-05 -3.845079E-08 -2.683663E-08
       907   1  6.762596E-05  9.000028E+00  1.394143E-07 -9.240191E-06 -6.411728E-08 -2.135463E-08
       907   2  7.039504E-05  9.000028E+00 -3.913931E-08 -6.601728E-06  2.484872E-09 -2.758145E-08
       907   3  7.338419E-05  9.000028E+00  8.365856E-08 -4.161999E-06  6.908704E-08 -2.317827E-08
       907   4  7.067444E-05  9.000027E+00  4.731894E-08 -1.107082E-05 -5.710037E-08  3.919877E-09
       907   5  7.318592E-05  9.000026E+00 -1.187776E-07 -7.929291E-06  4.445558E-09 -3.626340E-09
       907   6  7.590683E-05  9.000026E+00 -8.325974E-09 -4.986495E-06  6.599151E-08 -5.425479E-10
       907   7  7.442959E-05  9.000025E+00  1.040208E-07 -1.288922E-05 -5.557890E-08  2.919442E-08
       907   8  7.669446E-05  9.000025E+00 -2.397335E-08 -9.244625E-06  9.108345E-10  2.032879E-08
       907   9  7.915813E-05  9.000024E+00  9.977729E-08 -5.798760E-06  5.740055E-08  2.209319E-08
       907  10  6.769082E-05  9.000028E+00  1.314639E-07 -9.197211E-06  2.690274E-15 -6.061267E-15
       907  11  7.047078E-05  9.000028E+00 -3.620920E-08 -6.566526E-06  3.987185E-16 -4.045192E-16
       907  12  7.347081E-05  9.000028E+00  9.746902E-08 -4.134576E-06  5.710322E-16  9.047251E-17
       907  13  7.072569E-05  9.000027E+00  3.353482E-08 -1.102422E-05  4.309172E-15 -1.520985E-15
       907  14  7.324805E-05  9.000026E+00 -1.216813E-07 -7.890462E-06  3.818320E-15  7.612648E-15
       907  15  7.597984E-05  9.000026E+00 -3.493068E-10 -4.955444E-06 -1.597208E-16  5.847498E-15
       907  16  7.446723E-05  9.000025E+00  8.440283E-08 -1.283899E-05  5.443918E-15 -1.348303E-14
       907  17  7.674298E-05  9.000025E+00 -3.271092E-08 -9.202169E-06  1.090156E-15  7.363194E-15
       907  18  7.921753E-05  9.000024E+00  1.019202E-07 -5.764083E-06 -5.589760E-16 -2.593416E-15
       907  19  6.762596E-05  9.000028E+00  1.394143E-07 -9.240191E-06  6.411728E-08  2.135465E-08
       907  20  7.039504E-05  9.000028E+00 -3.913928E-08 -6.601728E-06 -2.484880E-09  2.758146E-08
       907  21  7.338419E-05  9.000028E+00  8.365856E-08 -4.161999E-06 -6.908703E-08  2.317828E-08
       907  22  7.067444E-05  9.000027E+00  4.731893E-08 -1.107082E-05  5.710039E-08 -3.919878E-09
       907  23  7.318592E-05  9.000026E+00 -1.187776E-07 -7.929291E-06 -4.445562E-09  3.626346E-09
       907  24  7.590683E-05  9.000026E+00 -8.325981E-09 -4.986495E-06 -6.599150E-08  5.425579E-10
       907  25  7.442959E-05  9.000025E+00  1.040208E-07 -1.288922E-05  5.557891E-08 -2.919444E-08
       907  26  7.669446E-05  9.000025E+00 -2.397334E-08 -9.244625E-06 -9.108174E-10 -2.032878E-08
       907  27  7.915813E-05  9.000024E+00  9.977731E-08 -5.798761E-06 -5.740055E-08 -2.209318E-08
       908   1  7.425952E-05  9.000027E+00  1.045710E-07 -2.594779E-06 -7.507432E-08 -2.195491E-08
       908   2  7.410458E-05  9.000027E+00 -4.593669E-08 -1.086788E-14 -6.783217E-16 -2.503689E-08
       908   3  7.425952E-05  9.000027E+00  1.045710E-07  2.594779E-06  7.507431E-08 -2.195492E-08
       908   4  7.673628E-05  9.000026E+00  2.288955E-08 -3.092644E-06 -6.834911E-08  2.968725E-10
       908   5  7.658441E-05  9.000025E+00 -1.204269E-07 -9.518940E-15 -6.618477E-15 -2.785113E-09
       908   6  7.673628E-05  9.000026E+00  2.288958E-08  3.092644E-06  6.834910E-08  2.968401E-10
       908   7  7.984395E-05  9.000024E+00  1.054985E-07 -3.590510E-06 -6.162390E-08  2.254868E-08
       908   8  7.969517E-05  9.000024E+00 -3.062668E-08 -2.611346E-14 -4.143661E-15  1.946669E-08
       908   9  7.984395E-05  9.000024E+00  1.054985E-07  3.590509E-06  6.162389E-08  2.254864E-08
       908  10  7.431606E-05  9.000027E+00  1.072963E-07 -2.587423E-06 -2.966489E-15 -3.860244E-15
       908  11  7.416111E-05  9.000027E+00 -4.321128E-08 -1.964872E-14 -1.785116E-15 -2.549996E-15
       908  12  7.431606E-05  9.000027E+00  1.072964E-07  2.587423E-06 -3.652033E-15 -6.401508E-15
       908  13  7.677994E-05  9.000026E+00  2.009841E-08 -3.085289E-06 -1.259264E-15  4.345082E-15
       908  14  7.662808E-05  9.000025E+00 -1.232180E-07 -1.496561E-14  3.696500E-16  1.547602E-15
       908  15  7.677994E-05  9.000026E+00  2.009841E-08  3.085289E-06 -9.792874E-16 -6.373566E-15
       908  16  7.987474E-05  9.000024E+00  9.719078E-08 -3.583154E-06  2.811954E-15 -8.838649E-15
       908  17  7.972596E-05  9.000024E+00 -3.893441E-08 -2.402642E-14  6.640301E-15  1.145440E-15
       908  18  7.987474E-05  9.000024E+00  9.719083E-08  3.583154E-06  3.884329E-15 -1.226686E-14
       908  19  7.425952E-05  9.000027E+00  1.045710E-07 -2.594779E-06  7.507432E-08  2.195494E-08
       908  20  7.410458E-05  9.000027E+00 -4.593664E-08 -2.629162E-14 -1.896822E-15  2.503689E-08
       908  21  7.425952E-05  9.000027E+00  1.045710E-07  2.594779E-06 -7.507432E-08  2.195492E-08
       908  22  7.673628E-05  9.000026E+00  2.288955E-08 -3.092644E-06  6.834911E-08 -2.968599E-10
       908  23  7.658441E-05  9.000025E+00 -1.204268E-07 -1.562735E-14  7.179783E-16  2.785108E-09
       908  24  7.673628E-05  9.000026E+00  2.288958E-08  3.092644E-06 -6.834911E-08 -2.968699E-10
       908  25  7.984395E-05  9.000024E+00  1.054985E-07 -3.590509E-06  6.162390E-08 -2.254869E-08
       908  26  7.969517E-05  9.000024E+00 -3.062666E-08 -2.321196E-14  4.758075E-15 -1.946669E-08
       908  27  7.984395E-05  9.000024E+00  1.054985E-07  3.590509E-06 -6.162389E-08 -2.254865E-08
       909   1  7.338419E-05  9.000028E+00  8.365858E-08  4.161999E-06 -6.908704E-08 -2.317829E-08
       909   2  7.039504E-05  9.000028E+00 -3.913930E-08  6.601728E-06 -2.484885E-09 -2.758146E-08
       909   3  6.762596E-05  9.000028E+00  1.394143E-07  9.240191E-06  6.411725E-08 -2.135461E-08
       909   4  7.590683E-05  9.000026E+00 -8.325960E-09  4.986495E-06 -6.599151E-08 -5.425857E-10
       909   5  7.318592E-05  9.000026E+00 -1.187776E-07  7.929291E-06 -4.445568E-09 -3.626359E-09
       909   6  7.067444E-05  9.000027E+00  4.731892E-08  1.107082E-05  5.710036E-08  3.919878E-09
       909   7  7.915813E-05  9.000024E+00  9.977734E-08  5.798761E-06 -5.740054E-08  2.209316E-08
       909   8  7.669446E-05  9.000025E+00 -2.397334E-08  9.244625E-06 -9.108292E-10  2.032878E-08
       909   9  7.442959E-05  9.000025E+00  1.040208E-07  1.288922E-05  5.557888E-08  2.919441E-08
       909  10  7.347081E-05  9.000028E+00  9.746897E-08  4.134576E-06 -1.195196E-16 -1.303727E-14
       909  11  7.047078E-05  9.000028E+00 -3.620921E-08  6.566526E-06  3.952137E-15 -9.686425E-15
       909  12  6.769082E-05  9.000028E+00  1.314640E-07  9.197211E-06 -5.347572E-15  3.646429E-15
       909  13  7.597984E-05  9.000026E+00 -3.493210E-10  4.955444E-06 -3.143449E-15 -7.478917E-15
       909  14  7.324805E-05  9.000026E+00 -1.216813E-07  7.890462E-06 -5.607232E-16 -1.567455E-15
       909  15  7.072569E-05  9.000027E+00  3.353483E-08  1.102422E-05 -2.209017E-15  6.932190E-15
       909  16  7.921753E-05  9.000024E+00  1.019201E-07  5.764083E-06 -4.202178E-15 -1.516508E-14
       909  17  7.674298E-05  9.000025E+00 -3.271093E-08  9.202169E-06 -8.268395E-15  1.135490E-15
       909  18  7.446723E-05  9.000025E+00  8.440292E-08  1.283899E-05 -9.832610E-15 -2.626152E-15
       909  19  7.338419E-05  9.000028E+00  8.365859E-08  4.161999E-06  6.908705E-08  2.317829E-08
       909  20  7.039504E-05  9.000028E+00 -3.913927E-08  6.601728E-06  2.484879E-09  2.758145E-08
       909  21  6.762596E-05  9.000028E+00  1.394143E-07  9.240191E-06 -6.411728E-08  2.135464E-08
       909  22  7.590683E-05  9.000026E+00 -8.325945E-09  4.986495E-06  6.599150E-08  5.425618E-10
       909  23  7.318592E-05  9.000026E+00 -1.187775E-07  7.929291E-06  4.445558E-09  3.626342E-09
       909  24  7.067444E-05  9.000027E+00  4.731893E-08  1.107082E-05 -5.710037E-08 -3.919868E-09
       909  25  7.915813E-05  9.000024E+00  9.977734E-08  5.798761E-06  5.740054E-08 -2.209319E-08
       909  26  7.669446E-05  9.000025E+00 -2.397331E-08  9.244625E-06  9.108061E-10 -2.032877E-08
       909  27  7.442959E-05  9.000025E+00  1.040208E-07  1.288922E-05 -5.557890E-08 -2.919438E-08
       910   1  6.495273E-05  9.000029E+00  4.624983E-08  1.073159E-05 -4.063198E-08 -2.476261E-08
       910   2  5.937579E-05  9.000028E+00 -2.137680E-08  1.268852E-05 -9.664267E-09 -3.419845E-08
       910   3  5.367690E-05  9.000027E+00  1.755707E-07  1.493557E-05  2.130343E-08 -1.983211E-08
       910   4  6.812797E-05  9.000027E+00 -6.769400E-08  1.287972E-05 -4.506497E-08  1.037004E-09
       910   5  6.299387E-05  9.000027E+00 -1.006261E-07  1.531875E-05 -1.354475E-08 -7.913667E-09
       910   6  5.771401E-05  9.000026E+00  7.547772E-08  1.804791E-05  1.797546E-08  6.937819E-09
       910   7  7.229661E-05  9.000026E+00  7.171138E-08  1.503574E-05 -3.845081E-08  2.683664E-08
       910   8  6.758326E-05  9.000025E+00  2.192042E-08  1.795687E-05 -6.378064E-09  1.837113E-08
       910   9  6.270035E-05  9.000025E+00  1.256270E-07  2.116813E-05  2.569468E-08  3.370777E-08
       910  10  6.511082E-05  9.000028E+00  7.240251E-08  1.066694E-05 -7.632889E-15 -1.696749E-15
       910  11  5.950957E-05  9.000028E+00 -1.953436E-08  1.261536E-05  3.558586E-15 -8.928338E-15
       910  12  5.378637E-05  9.000027E+00  1.531028E-07  1.485390E-05 -5.676127E-15  5.199002E-15
       910  13  6.827116E-05  9.000027E+00 -4.792483E-08  1.280697E-05  1.059174E-15  7.119420E-15
       910  14  6.311275E-05  9.000026E+00 -1.051672E-07  1.523749E-05  3.312239E-15 -4.067185E-15
       910  15  5.780859E-05  9.000025E+00  4.662625E-08  1.795814E-05 -1.890191E-15  9.255656E-15
       910  16  7.242491E-05  9.000026E+00  8.509696E-08  1.495488E-05 -1.102755E-15 -8.711291E-15
       910  17  6.768725E-05  9.000025E+00  1.099568E-08  1.786751E-05  6.201282E-15 -6.352776E-15
       910  18  6.278003E-05  9.000024E+00  9.039203E-08  2.107026E-05  1.872217E-15  4.535226E-16
       910  19  6.495273E-05  9.000029E+00  4.624983E-08  1.073159E-05  4.063196E-08  2.476265E-08
       910  20  5.937579E-05  9.000028E+00 -2.137677E-08  1.268852E-05  9.664270E-09  3.419844E-08
       910  21  5.367690E-05  9.000027E+00  1.755707E-07  1.493557E-05 -2.130343E-08  1.983214E-08
       910  22  6.812797E-05  9.000027E+00 -6.769399E-08  1.287972E-05  4.506497E-08 -1.036980E-09
       910  23  6.299387E-05  9.000027E+00 -1.006260E-07  1.531875E-05  1.354475E-08  7.913655E-09
       910  24  5.771401E-05  9.000026E+00  7.547771E-08  1.804791E-05 -1.797547E-08 -6.937807E-09
       910  25  7.229661E-05  9.000026E+00  7.171141E-08  1.503574E-05  3.845081E-08 -2.683665E-08
       910  26  6.758326E-05  9.000025E+00  2.192044E-08  1.795687E-05  6.378073E-09 -1.837114E-08
       910  27  6.270035E-05  9.000025E+00  1.256270E-07  2.116813E-05 -2.569468E-08 -3.370776E-08
       911   1  4.921420E-05  9.000025E+00 -7.172055E-08  1.594604E-05  3.348719E-08 -1.996676E-08
       911   2  4.217555E-05  9.000021E+00  6.788729E-08  1.643751E-05 -2.190733E-08 -3.321384E-08
       911   3  3.415496E-05  9.000013E+00  2.161837E-07  1.704340E-05 -7.730184E-08 -2.020801E-08
       911   4  5.344025E-05  9.000024E+00 -1.807730E-07  1.930296E-05  1.974676E-08  6.865481E-09
       911   5  4.669919E-05  9.000020E+00 -2.525814E-08  2.003882E-05 -2.650160E-08 -6.652642E-09
       911   6  3.894994E-05  9.000013E+00  7.768851E-08  2.088911E-05 -7.274994E-08  6.082131E-09
       911   7  5.894963E-05  9.000024E+00 -2.659867E-08  2.273415E-05  2.220448E-08  3.369776E-08
       911   8  5.247376E-05  9.000020E+00  6.923177E-08  2.371440E-05 -1.489774E-08  1.990858E-08
       911   9  4.496345E-05  9.000013E+00  5.123739E-08  2.480908E-05 -5.199995E-08  3.237232E-08
       911  10  4.948988E-05  9.000025E+00 -3.310830E-08  1.584768E-05 -6.033204E-15  2.165532E-15
       911  11  4.241448E-05  9.000020E+00  6.974889E-08  1.633616E-05 -4.477626E-15 -7.948584E-15
       911  12  3.435714E-05  9.000013E+00  1.812945E-07  1.693907E-05 -2.389963E-15 -5.128302E-15
       911  13  5.371071E-05  9.000024E+00 -1.443996E-07  1.919235E-05 -3.700619E-15  1.077809E-14
       911  14  4.693289E-05  9.000020E+00 -2.563547E-08  1.992523E-05  2.548340E-15 -6.243451E-15
       911  15  3.914689E-05  9.000012E+00  4.056043E-08  2.077253E-05  1.144012E-14 -2.321224E-15
       911  16  5.921486E-05  9.000023E+00  7.535760E-09  2.261129E-05  7.322325E-16 -1.591190E-15
       911  17  5.270224E-05  9.000020E+00  6.661548E-08  2.358856E-05  1.004757E-14 -6.085672E-15
       911  18  4.515518E-05  9.000013E+00  1.187044E-08  2.468025E-05  1.296861E-14 -7.634018E-15
       911  19  4.921420E-05  9.000025E+00 -7.172057E-08  1.594604E-05 -3.348719E-08  1.996680E-08
       911  20  4.217555E-05  9.000021E+00  6.788732E-08  1.643751E-05  2.190732E-08  3.321383E-08
       911  21  3.415496E-05  9.000013E+00  2.161837E-07  1.704340E-05  7.730182E-08  2.020802E-08
       911  22  5.344025E-05  9.000024E+00 -1.807729E-07  1.930296E-05 -1.974676E-08 -6.865459E-09
       911  23  4.669919E-05  9.000020E+00 -2.525811E-08  2.003882E-05  2.650161E-08  6.652623E-09
       911  24  3.894994E-05  9.000013E+00  7.768852E-08  2.088911E-05  7.274997E-08 -6.082145E-09
       911  25  5.894963E-05  9.000024E+00 -2.659863E-08  2.273415E-05 -2.220448E-08 -3.369775E-08
       911  26  5.247376E-05  9.000020E+00  6.923182E-08  2.371440E-05  1.489776E-08 -1.990860E-08
       911  27  4.496345E-05  9.000013E+00  5.123742E-08  2.480908E-05  5.199997E-08 -3.237231E-08
       912   1  2.871238E-05  9.000006E+00 -2.287473E-07  1.657966E-05  1.579115E-07 -7.076929E-09
       912   2  2.303835E-05  8.999991E+00  1.552656E-07  1.424911E-05 -3.324412E-08 -7.796868E-09
       912   3  1.473647E-05  8.999968E+00 -2.895608E-07  1.171007E-05 -2.243998E-07 -3.313783E-08
       912   4  3.358837E-05  9.000007E+00 -3.597320E-07  2.034226E-05  1.471188E-07  1.335803E-08
       912   5  2.805466E-05  8.999992E+00  2.151136E-07  1.760407E-05 -4.663649E-08 -7.212205E-09
       912   6  1.991773E-05  8.999970E+00  1.856885E-08  1.465738E-05 -2.403917E-07 -5.240348E-08
       912   7  3.983871E-05  9.000007E+00 -3.440693E-07  2.431276E-05  1.491531E-07  3.379302E-08
       912   8  3.441968E-05  8.999994E+00  3.617491E-07  2.116691E-05 -4.720178E-08 -6.627514E-09
       912   9  2.642205E-05  8.999973E+00  3.536264E-07  1.781258E-05 -2.435566E-07 -7.166908E-08
       912  10  2.910866E-05  9.000006E+00 -1.950751E-07  1.648262E-05  2.827239E-15 -4.227466E-15
       912  11  2.338344E-05  8.999990E+00  1.377454E-07  1.415935E-05 -3.283628E-15 -4.183932E-17
       912  12  1.503036E-05  8.999967E+00 -3.582736E-07  1.162760E-05 -1.029006E-14 -1.883280E-15
       912  13  3.399739E-05  9.000006E+00 -3.205974E-07  2.022816E-05  1.251276E-14  2.756218E-15
       912  14  2.841249E-05  8.999992E+00  2.030557E-07  1.749725E-05  3.936665E-15  5.434307E-16
       912  15  2.022437E-05  8.999970E+00 -4.468153E-08  1.455785E-05 -3.737228E-16 -5.566458E-15
       912  16  4.026047E-05  9.000007E+00 -2.994723E-07  2.418159E-05  3.970420E-15 -3.911929E-15
       912  17  3.479026E-05  8.999994E+00  3.551536E-07  2.104303E-05 -2.904553E-15 -1.145334E-17
       912  18  2.674143E-05  8.999973E+00  2.958385E-07  1.769598E-05  4.101485E-15 -1.434064E-14
       912  19  2.871238E-05  9.000006E+00 -2.287473E-07  1.657966E-05 -1.579115E-07  7.076952E-09
       912  20  2.303835E-05  8.999991E+00  1.552656E-07  1.424911E-05  3.324413E-08  7.796869E-09
       912  21  1.473647E-05  8.999968E+00 -2.895609E-07  1.171007E-05  2.243998E-07  3.313784E-08
       912  22  3.358837E-05  9.000007E+00 -3.597320E-07  2.034226E-05 -1.471187E-07 -1.335802E-08
       912  23  2.805466E-05  8.999992E+00  2.151136E-07  1.760407E-05  4.663649E-08  7.212198E-09
       912  24  1.991773E-05  8.999970E+00  1.856883E-08  1.465738E-05  2.403917E-07  5.240346E-08
       912  25  3.983871E-05  9.000007E+00 -3.440693E-07  2.431276E-05 -1.491531E-07 -3.379303E-08
       912  26  3.441968E-05  8.999994E+00  3.617491E-07  2.116691E-05  4.720175E-08  6.627511E-09
       912  27  2.642205E-05  8.999973E+00  3.536265E-07  1.781258E-05  2.435566E-07  7.166908E-08
       913   1  1.130718E-05  8.999951E+00 -4.281876E-07  9.108523E-06  2.563591E-07  2.299310E-09
       913   2  1.119665E-05  8.999918E+00  6.534734E-07  5.260967E-06  3.310348E-08  7.743808E-08
       913   3  6.905650E-06  8.999873E+00 -2.735446E-07  1.686631E-06 -1.901521E-07  1.644234E-08
       913   4  1.600134E-05  8.999954E+00 -4.113870E-07  1.151806E-05  2.704869E-07 -1.592698E-08
       913   5  1.585519E-05  8.999920E+00  3.307662E-07  6.380816E-06  5.662824E-08  8.263380E-08
       913   6  1.166469E-05  8.999874E+00 -6.181123E-07  1.516794E-06 -1.572305E-07  4.506005E-08
       913   7  2.153963E-05  8.999957E+00 -5.808172E-07  1.376400E-05  2.789197E-07 -3.415323E-08
       913   8  2.136925E-05  8.999922E+00 -1.515951E-07  7.337074E-06  7.445799E-08  8.782955E-08
       913   9  1.729064E-05  8.999875E+00 -1.095758E-06  1.183366E-06 -1.300038E-07  7.367782E-08
       913  10  1.173892E-05  8.999951E+00 -4.398212E-07  9.102389E-06 -9.159005E-15 -6.960269E-15
       913  11  1.166756E-05  8.999918E+00  6.810034E-07  5.312932E-06  1.305264E-15 -5.170185E-15
       913  12  7.415721E-06  8.999873E+00 -2.068512E-07  1.796694E-06  1.152603E-15 -1.440856E-15
       913  13  1.653476E-05  8.999953E+00 -3.794470E-07  1.152498E-05  2.549002E-15 -3.845304E-15
       913  14  1.642777E-05  8.999919E+00  4.018698E-07  6.445834E-06  2.599832E-15 -2.660334E-15
       913  15  1.227644E-05  8.999874E+00 -5.078453E-07  1.639911E-06  3.794929E-15  1.974758E-15
       913  16  2.217472E-05  8.999956E+00 -5.053036E-07  1.378398E-05  6.984279E-15 -1.621452E-14
       913  17  2.204350E-05  8.999921E+00 -3.691799E-08  7.415148E-06 -8.251326E-16 -4.955089E-17
       913  18  1.800406E-05  8.999875E+00 -9.419168E-07  1.319538E-06 -4.747579E-15 -4.888281E-15
       913  19  1.130718E-05  8.999951E+00 -4.281875E-07  9.108523E-06 -2.563591E-07 -2.299289E-09
       913  20  1.119665E-05  8.999918E+00  6.534735E-07  5.260967E-06 -3.310349E-08 -7.743808E-08
       913  21  6.905650E-06  8.999873E+00 -2.735446E-07  1.686631E-06  1.901521E-07 -1.644232E-08
       913  22  1.600134E-05  8.999954E+00 -4.113870E-07  1.151806E-05 -2.704869E-07  1.592698E-08
       913  23  1.585519E-05  8.999920E+00  3.307662E-07  6.380816E-06 -5.662826E-08 -8.263381E-08
       913  24  1.166469E-05  8.999874E+00 -6.181123E-07  1.516794E-06  1.572305E-07 -4.506005E-08
       913  25  2.153963E-05  8.999957E+00 -5.808172E-07  1.376400E-05 -2.789197E-07  3.415320E-08
       913  26  2.136925E-05  8.999922E+00 -1.515951E-07  7.337074E-06 -7.445799E-08 -8.782955E-08
       913  27  1.729064E-05  8.999875E+00 -1.095757E-06  1.183366E-06  1.300038E-07 -7.367779E-08
       914   1  8.445874E-06  8.999844E+00  2.835959E-07  3.426465E-07  8.281754E-08 -6.610501E-08
       914   2  7.496788E-06  8.999789E+00 -4.492201E-07  6.889383E-07  7.371588E-09 -1.296165E-07
       914   3  6.672595E-06  8.999733E+00  1.102621E-07  1.310448E-06 -6.807438E-08 -8.268364E-08
       914   4  1.407148E-05  8.999844E+00  4.020404E-07 -2.327325E-07  6.737076E-08 -2.650728E-08
       914   5  1.333063E-05  8.999789E+00 -1.648894E-07  1.338693E-06 -1.129146E-07 -7.570814E-08
       914   6  1.260423E-05  8.999732E+00  3.027757E-07  3.185337E-06 -2.932000E-07 -1.446463E-08
       914   7  2.201765E-05  8.999846E+00  1.017295E-06 -9.574605E-07  5.140327E-08  1.309046E-08
       914   8  2.148608E-05  8.999790E+00  6.186811E-07  1.839099E-06 -2.337215E-07 -2.179975E-08
       914   9  2.085851E-05  8.999732E+00  9.969590E-07  4.910877E-06 -5.188463E-07  5.375442E-08
       914  10  8.672015E-06  8.999843E+00  2.379890E-07  4.587462E-07  2.711182E-15 -6.169237E-15
       914  11  7.740200E-06  8.999788E+00 -4.775558E-07  6.849919E-07  2.851769E-15 -1.009081E-14
       914  12  6.933278E-06  8.999733E+00  9.919753E-08  1.186455E-06  4.681328E-15 -8.662656E-15
       914  13  1.408754E-05  8.999844E+00  2.663990E-07 -1.108758E-07 -2.777411E-15  4.166693E-16
       914  14  1.336396E-05  8.999788E+00 -2.832597E-07  1.340504E-06 -4.545771E-15 -6.451570E-15
       914  15  1.265483E-05  8.999732E+00  2.016764E-07  3.067101E-06 -1.801179E-15 -1.848302E-16
       914  16  2.182363E-05  8.999845E+00  7.916185E-07 -8.298467E-07 -6.593103E-15 -1.175874E-14
       914  17  2.130933E-05  8.999789E+00  4.102761E-07  1.846667E-06 -1.083506E-14 -7.617119E-15
       914  18  2.069903E-05  8.999732E+00  8.058252E-07  4.798398E-06 -2.328562E-14  2.753598E-15
       914  19  8.445874E-06  8.999844E+00  2.835959E-07  3.426465E-07 -8.281754E-08  6.610503E-08
       914  20  7.496788E-06  8.999789E+00 -4.492201E-07  6.889383E-07 -7.371575E-09  1.296165E-07
       914  21  6.672595E-06  8.999733E+00  1.102621E-07  1.310448E-06  6.807437E-08  8.268364E-08
       914  22  1.407148E-05  8.999844E+00  4.020404E-07 -2.327325E-07 -6.737077E-08  2.650729E-08
       914  23  1.333063E-05  8.999789E+00 -1.648894E-07  1.338693E-06  1.129146E-07  7.570812E-08
       914  24  1.260423E-05  8.999732E+00  3.027757E-07  3.185337E-06  2.932000E-07  1.446462E-08
       914  25  2.201765E-05  8.999846E+00  1.017295E-06 -9.574605E-07 -5.140330E-08 -1.309048E-08
       914  26  2.148608E-05  8.999790E+00  6.186811E-07  1.839099E-06  2.337215E-07  2.179974E-08
       914  27  2.085851E-05  8.999732E+00  9.969590E-07  4.910877E-06  5.188463E-07 -5.375438E-08
       915   1  4.214883E-06  8.999699E+00  3.463896E-09  1.490350E-06  1.636113E-07  2.965330E-08
       915   2  3.265055E-06  8.999638E+00  7.833238E-07  8.333327E-07  2.383921E-10  7.654103E-08
       915   3 -1.465425E-06  8.999567E+00 -6.045868E-07 -1.515305E-06 -1.631345E-07 -2.188390E-07
       915   4  7.614614E-06  8.999698E+00 -8.044821E-07  4.248207E-06 -1.525131E-08  8.055146E-08
       915   5  4.972133E-06  8.999638E+00  2.311662E-07  2.774411E-06 -9.240407E-09  5.360554E-08
       915   6 -1.108733E-06  8.999569E+00 -1.023312E-07 -3.910047E-07 -3.229552E-09 -3.156081E-07
       915   7  1.223650E-05  8.999697E+00 -1.582942E-06  7.364419E-06 -1.931046E-07  1.314496E-07
       915   8  7.899343E-06  8.999639E+00 -2.962156E-07  5.073845E-06 -1.770982E-08  3.067009E-08
       915   9  4.660721E-07  8.999571E+00  4.199898E-07  1.091651E-06  1.576849E-07 -4.123772E-07
       915  10  4.559615E-06  8.999699E+00  1.710260E-08  1.454452E-06  7.111161E-15 -7.636674E-15
       915  11  3.524453E-06  8.999638E+00  7.116286E-07  1.052822E-06  1.471452E-14  2.101293E-15
       915  12 -1.291361E-06  8.999566E+00 -7.616159E-07 -1.040427E-06 -1.941181E-15  1.148773E-14
       915  13  8.406275E-06  8.999698E+00 -5.993021E-07  4.183864E-06  2.131037E-15  4.004631E-15
       915  14  5.678460E-06  8.999638E+00  3.510123E-07  2.965456E-06  7.451631E-15  4.732343E-15
       915  15 -4.877396E-07  8.999568E+00 -6.781908E-08  5.542863E-08 -8.900354E-15  1.931326E-14
       915  16  1.347509E-05  8.999697E+00 -1.186221E-06  7.271631E-06 -2.012117E-14  4.692054E-15
       915  17  9.052600E-06  8.999638E+00  1.517158E-08  5.236445E-06 -3.787821E-15  1.027608E-14
       915  18  1.533995E-06  8.999570E+00  6.460432E-07  1.509639E-06 -1.521875E-15  2.038430E-14
       915  19  4.214883E-06  8.999699E+00  3.463943E-09  1.490350E-06 -1.636113E-07 -2.965329E-08
       915  20  3.265055E-06  8.999638E+00  7.833238E-07  8.333327E-07 -2.383547E-10 -7.654102E-08
       915  21 -1.465426E-06  8.999567E+00 -6.045869E-07 -1.515305E-06  1.631346E-07  2.188390E-07
       915  22  7.614614E-06  8.999698E+00 -8.044820E-07  4.248207E-06  1.525128E-08 -8.055145E-08
       915  23  4.972133E-06  8.999638E+00  2.311662E-07  2.774411E-06  9.240427E-09 -5.360555E-08
       915  24 -1.108734E-06  8.999569E+00 -1.023313E-07 -3.910048E-07  3.229528E-09  3.156081E-07
       915  25  1.223650E-05  8.999697E+00 -1.582942E-06  7.364419E-06  1.931045E-07 -1.314496E-07
       915  26  7.899343E-06  8.999639E+00 -2.962156E-07  5.073845E-06  1.770982E-08 -3.067008E-08
       915  27  4.660721E-07  8.999571E+00  4.199898E-07  1.091651E-06 -1.576849E-07  4.123773E-07
      1001   1 -1.156929E-06  8.999569E+00 -1.059321E-06 -1.706144E-06  1.625721E-07 -4.407917E-07
      1001   2  1.170910E-05  8.999643E+00  1.099191E-06 -8.907573E-06  3.231227E-08  3.264969E-08
      1001   3  1.782809E-05  8.999698E+00 -6.359087E-07 -1.034673E-05 -9.794755E-08  3.411887E-09
      1001   4 -5.466627E-07  8.999578E+00 -1.902567E-07 -6.570214E-06  1.316145E-06 -3.631878E-07
      1001   5  1.724496E-05  8.999645E+00  7.929985E-07 -1.467569E-05 -3.387809E-08  1.796715E-07
      1001   6  2.879223E-05  8.999693E+00 -9.444402E-07 -1.701890E-05 -1.383901E-06  2.198516E-07
      1001   7  2.814958E-06  8.999588E+00  2.375626E-07 -1.306910E-05  2.301547E-06 -2.855838E-07
      1001   8  2.586852E-05  8.999648E+00  8.303564E-07 -2.207863E-05 -2.682390E-07  3.266933E-07
      1001   9  4.318040E-05  8.999689E+00 -1.246257E-07 -2.532589E-05 -2.838025E-06  4.362913E-07
      1001  10 -7.932152E-07  8.999568E+00 -1.400439E-06 -1.011190E-06  2.937226E-15 -2.243122E-14
      1001  11  1.252930E-05  8.999643E+00  1.214551E-06 -8.938937E-06  9.903416E-15  1.058408E-16
      1001  12  1.910477E-05  8.999699E+00 -6.406956E-08 -1.110441E-05  2.445516E-14  1.018452E-15
      1001  13 -1.454005E-06  8.999576E+00 -1.076113E-06 -5.723101E-06 -1.112304E-14 -1.286138E-14
      1001  14  1.679410E-05  8.999644E+00  3.636206E-07 -1.455490E-05 -2.145279E-15 -5.279847E-15
      1001  15  2.879784E-05  8.999693E+00 -9.173394E-07 -1.762442E-05  1.350076E-14 -3.129888E-15
      1001  16  6.365598E-07  8.999586E+00 -1.193032E-06 -1.206983E-05 -1.437390E-14  2.796761E-15
      1001  17  2.414660E-05  8.999646E+00 -1.437598E-07 -2.180567E-05 -1.105516E-14 -6.593287E-15
      1001  18  4.191496E-05  8.999689E+00 -6.422631E-07 -2.577925E-05  3.623705E-15 -6.115770E-16
      1001  19 -1.156929E-06  8.999569E+00 -1.059321E-06 -1.706144E-06 -1.625721E-07  4.407916E-07
      1001  20  1.170910E-05  8.999643E+00  1.099191E-06 -8.907573E-06 -3.231224E-08 -3.264969E-08
      1001  21  1.782809E-05  8.999698E+00 -6.359087E-07 -1.034673E-05  9.794760E-08 -3.411885E-09
      1001  22 -5.466626E-07  8.999578E+00 -1.902567E-07 -6.570214E-06 -1.316145E-06  3.631877E-07
      1001  23  1.724496E-05  8.999645E+00  7.929985E-07 -1.467569E-05  3.387809E-08 -1.796715E-07
      1001  24  2.879223E-05  8.999693E+00 -9.444402E-07 -1.701890E-05  1.383901E-06 -2.198516E-07
      1001  25  2.814958E-06  8.999588E+00  2.375626E-07 -1.306910E-05 -2.301547E-06  2.855838E-07
      1001  26  2.586852E-05  8.999648E+00  8.303564E-07 -2.207863E-05  2.682389E-07 -3.266933E-07
      1001  27  4.318040E-05  8.999689E+00 -1.246256E-07 -2.532589E-05  2.838025E-06 -4.362913E-07
      1002   1  2.593644E-05  8.999730E+00  7.061249E-07 -5.221680E-06  2.444224E-07 -1.603230E-07
      1002   2  2.505049E-05  8.999785E+00 -7.344775E-07 -9.368069E-07  9.747258E-08 -2.218521E-07
      1002   3  2.629578E-05  8.999845E+00  6.975770E-07  1.797323E-06 -4.947722E-08 -5.498610E-08
      1002   4  3.614781E-05  8.999723E+00 -5.294514E-08 -7.836781E-06 -8.900262E-07  3.552020E-08
      1002   5  3.477061E-05  8.999783E+00 -7.138184E-07 -1.229132E-06 -4.572994E-07 -1.662065E-07
      1002   6  3.529627E-05  8.999847E+00  9.650433E-07  3.827774E-06 -2.457267E-08 -1.395381E-07
      1002   7  4.939384E-05  8.999717E+00  2.764814E-07 -9.641085E-06 -1.970889E-06  2.313634E-07
      1002   8  4.741824E-05  8.999782E+00  1.452711E-07 -7.106599E-07 -9.584858E-07 -1.105609E-07
      1002   9  4.711708E-05  8.999850E+00  1.820874E-06  6.669022E-06  5.391752E-08 -2.240901E-07
      1002  10  2.620355E-05  8.999730E+00  8.749255E-07 -6.190044E-06  1.414198E-14 -7.834590E-15
      1002  11  2.503931E-05  8.999785E+00 -8.439669E-07 -1.556062E-06 -9.051375E-16 -4.647325E-15
      1002  12  2.600631E-05  8.999844E+00  3.097978E-07  1.527177E-06  6.790954E-15  2.265571E-15
      1002  13  3.702586E-05  8.999724E+00  3.776873E-07 -8.897909E-06  1.508547E-14  1.063249E-16
      1002  14  3.537038E-05  8.999783E+00 -5.614759E-07 -1.941150E-06 -2.223164E-15 -2.499278E-15
      1002  15  3.561774E-05  8.999846E+00  8.390958E-07  3.464865E-06  1.219537E-15 -1.482627E-14
      1002  16  5.088284E-05  8.999718E+00  9.689459E-07 -1.079498E-05  8.759568E-15  2.325934E-15
      1002  17  4.862894E-05  8.999782E+00  5.594456E-07 -1.515441E-06 -1.770030E-15  2.397525E-15
      1002  18  4.804949E-05  8.999849E+00  1.956758E-06  6.213350E-06 -7.564151E-15 -2.020947E-14
      1002  19  2.593644E-05  8.999730E+00  7.061249E-07 -5.221680E-06 -2.444224E-07  1.603230E-07
      1002  20  2.505049E-05  8.999785E+00 -7.344775E-07 -9.368069E-07 -9.747257E-08  2.218521E-07
      1002  21  2.629578E-05  8.999845E+00  6.975771E-07  1.797323E-06  4.947725E-08  5.498610E-08
      1002  22  3.614781E-05  8.999723E+00 -5.294517E-08 -7.836781E-06  8.900262E-07 -3.552020E-08
      1002  23  3.477061E-05  8.999783E+00 -7.138184E-07 -1.229132E-06  4.572994E-07  1.662065E-07
      1002  24  3.529627E-05  8.999847E+00  9.650433E-07  3.827774E-06  2.457267E-08  1.395381E-07
      1002  25  4.939384E-05  8.999717E+00  2.764815E-07 -9.641085E-06  1.970889E-06 -2.313634E-07
      1002  26  4.741824E-05  8.999782E+00  1.452711E-07 -7.106599E-07  9.584858E-07  1.105609E-07
      1002  27  4.711708E-05  8.999850E+00  1.820874E-06  6.669022E-06 -5.391754E-08  2.240901E-07
      1003   1  2.190356E-05  8.999878E+00 -5.178308E-07 -1.160464E-06  1.485521E-07  1.209257E-07
      1003   2  2.674194E-05  8.999927E+00  1.134861E-06 -8.186552E-06 -7.223617E-08  2.090134E-07
      1003   3  2.534857E-05  8.999958E+00 -7.350599E-07 -1.520142E-05 -2.930244E-07 -1.604854E-08
      1003   4  2.926999E-05  8.999880E+00 -1.030451E-06  2.307218E-09  2.350971E-07  1.281560E-08
      1003   5  3.429736E-05  8.999930E+00  5.397149E-07 -9.072896E-06 -5.119399E-08  1.601439E-07
      1003   6  3.340612E-05  8.999962E+00 -6.820486E-07 -1.813688E-05 -3.374851E-07 -5.677564E-09
      1003   7  3.751471E-05  8.999883E+00 -1.845125E-06  1.286606E-06  3.204854E-07 -9.529443E-08
      1003   8  4.273338E-05  8.999933E+00 -3.520860E-07 -9.837712E-06 -3.130856E-08  1.112743E-07
      1003   9  4.234659E-05  8.999966E+00 -9.202941E-07 -2.095081E-05 -3.831025E-07  4.693445E-09
      1003  10  2.242484E-05  8.999877E+00 -5.929065E-07 -1.268089E-06  1.079226E-14 -6.524412E-16
      1003  11  2.733247E-05  8.999926E+00  1.129033E-06 -8.225873E-06 -2.943429E-15  2.714004E-15
      1003  12  2.600835E-05  8.999958E+00 -6.716390E-07 -1.517244E-05  2.869807E-15  1.039150E-14
      1003  13  2.991080E-05  8.999879E+00 -1.054299E-06 -8.223465E-08  7.306709E-16 -1.406552E-14
      1003  14  3.500742E-05  8.999929E+00  5.851154E-07 -9.089134E-06 -1.155755E-15 -6.743958E-15
      1003  15  3.418543E-05  8.999962E+00 -5.673998E-07 -1.808482E-05  2.801213E-15 -4.090360E-15
      1003  16  3.827505E-05  8.999882E+00 -1.817745E-06  1.225147E-06 -8.166129E-15 -2.653161E-14
      1003  17  4.356297E-05  8.999932E+00 -2.554574E-07 -9.830867E-06  2.567616E-15 -5.104877E-15
      1003  18  4.324543E-05  8.999966E+00 -7.544173E-07 -2.087567E-05  1.193339E-14 -5.160723E-15
      1003  19  2.190356E-05  8.999878E+00 -5.178309E-07 -1.160464E-06 -1.485521E-07 -1.209257E-07
      1003  20  2.674194E-05  8.999927E+00  1.134861E-06 -8.186552E-06  7.223617E-08 -2.090134E-07
      1003  21  2.534857E-05  8.999958E+00 -7.350598E-07 -1.520142E-05  2.930244E-07  1.604856E-08
      1003  22  2.926998E-05  8.999880E+00 -1.030451E-06  2.307222E-09 -2.350971E-07 -1.281563E-08
      1003  23  3.429736E-05  8.999930E+00  5.397149E-07 -9.072896E-06  5.119399E-08 -1.601439E-07
      1003  24  3.340612E-05  8.999962E+00 -6.820486E-07 -1.813688E-05  3.374851E-07  5.677559E-09
      1003  25  3.751471E-05  8.999883E+00 -1.845125E-06  1.286606E-06 -3.204854E-07  9.529437E-08
      1003  26  4.273338E-05  8.999933E+00 -3.520859E-07 -9.837712E-06  3.130856E-08 -1.112744E-07
      1003  27  4.234659E-05  8.999966E+00 -9.202941E-07 -2.095081E-05  3.831025E-07 -4.693464E-09
      1004   1  2.983570E-05  8.999973E+00 -3.594480E-07 -1.947795E-05  2.581644E-07 -1.135296E-07
      1004   2  3.824986E-05  8.999995E+00  5.491896E-08 -2.317870E-05  5.697782E-08 -4.383601E-08
      1004   3  4.418313E-05  9.000008E+00 -1.238571E-07 -2.667463E-05 -1.442087E-07 -9.019199E-09
      1004   4  3.860582E-05  8.999977E+00  1.562589E-07 -2.270414E-05  3.001575E-07 -8.547228E-08
      1004   5  4.656196E-05  8.999997E+00  1.398112E-07 -2.648428E-05  8.496634E-08 -1.424030E-08
      1004   6  5.207207E-05  9.000008E+00 -3.884004E-07 -3.005960E-05 -1.302248E-07  2.211486E-08
      1004   7  4.917121E-05  8.999982E+00  7.958712E-07 -2.626050E-05  3.215133E-07 -5.741494E-08
      1004   8  5.671059E-05  8.999999E+00  4.449162E-07 -3.012004E-05  9.231758E-08  1.535541E-08
      1004   9  6.183882E-05  9.000009E+00 -3.364235E-07 -3.377475E-05 -1.368781E-07  5.324896E-08
      1004  10  3.015109E-05  8.999973E+00 -4.240978E-07 -1.930407E-05  7.822647E-15  1.016919E-14
      1004  11  3.861342E-05  8.999994E+00  3.843365E-08 -2.300225E-05  6.154847E-15  5.700823E-15
      1004  12  4.459485E-05  9.000008E+00 -9.217781E-08 -2.649561E-05  5.740793E-15 -9.974452E-16
      1004  13  3.892572E-05  8.999977E+00  9.354051E-08 -2.251420E-05  9.985373E-15  1.411326E-15
      1004  14  4.693002E-05  8.999996E+00  1.252574E-07 -2.629178E-05  5.827676E-15  9.149373E-15
      1004  15  5.248830E-05  9.000008E+00 -3.547896E-07 -2.986452E-05  6.733471E-15  3.007142E-16
      1004  16  4.949562E-05  8.999981E+00  7.350844E-07 -2.605451E-05  1.508388E-14 -7.158221E-15
      1004  17  5.708316E-05  8.999999E+00  4.322940E-07 -2.991147E-05  9.980005E-15  1.274574E-14
      1004  18  6.225956E-05  9.000009E+00 -3.008812E-07 -3.356361E-05  9.695969E-15  9.665596E-15
      1004  19  2.983570E-05  8.999973E+00 -3.594480E-07 -1.947795E-05 -2.581644E-07  1.135296E-07
      1004  20  3.824986E-05  8.999995E+00  5.491893E-08 -2.317870E-05 -5.697781E-08  4.383603E-08
      1004  21  4.418313E-05  9.000008E+00 -1.238571E-07 -2.667463E-05  1.442088E-07  9.019193E-09
      1004  22  3.860582E-05  8.999977E+00  1.562588E-07 -2.270414E-05 -3.001575E-07  8.547229E-08
      1004  23  4.656196E-05  8.999997E+00  1.398111E-07 -2.648428E-05 -8.496633E-08  1.424031E-08
      1004  24  5.207207E-05  9.000008E+00 -3.884004E-07 -3.005960E-05  1.302248E-07 -2.211487E-08
      1004  25  4.917121E-05  8.999982E+00  7.958712E-07 -2.626050E-05 -3.215133E-07  5.741493E-08
      1004  26  5.671059E-05  8.999999E+00  4.449162E-07 -3.012004E-05 -9.231756E-08 -1.535538E-08
      1004  27  6.183882E-05  9.000009E+00 -3.364235E-07 -3.377475E-05  1.368781E-07 -5.324895E-08
      1005   1  4.934703E-05  9.000014E+00  3.422394E-07 -2.712841E-05  4.403195E-08 -1.905996E-08
      1005   2  5.621462E-05  9.000019E+00  3.549596E-08 -2.567316E-05  1.352490E-08 -3.949983E-08
      1005   3  6.242601E-05  9.000023E+00 -3.285792E-08 -2.462396E-05 -1.698216E-08 -1.908893E-08
      1005   4  5.721017E-05  9.000013E+00  1.512373E-07 -3.048619E-05  3.195532E-08  1.180236E-08
      1005   5  6.340976E-05  9.000018E+00 -7.609318E-08 -2.862703E-05  1.496633E-08 -1.110966E-08
      1005   6  6.891230E-05  9.000021E+00 -1.603525E-07 -2.717392E-05 -2.022654E-09  6.829018E-09
      1005   7  6.632433E-05  9.000013E+00  5.831174E-08 -3.391512E-05 -4.754279E-09  4.266473E-08
      1005   8  7.190518E-05  9.000018E+00  2.534808E-08 -3.165205E-05 -8.225208E-09  1.728050E-08
      1005   9  7.674814E-05  9.000020E+00  4.013725E-08 -2.979503E-05 -1.169613E-08  3.274700E-08
      1005  10  4.952328E-05  9.000013E+00  2.897645E-07 -2.695469E-05 -3.475935E-16 -1.169471E-14
      1005  11  5.644351E-05  9.000019E+00  3.566393E-08 -2.550463E-05  9.168421E-16 -8.040402E-15
      1005  12  6.270754E-05  9.000023E+00  1.995305E-08 -2.446061E-05 -2.771719E-16  1.350410E-15
      1005  13  5.737735E-05  9.000013E+00  9.487692E-08 -3.029492E-05  1.402124E-15 -4.776737E-15
      1005  14  6.362958E-05  9.000018E+00 -7.981059E-08 -2.844095E-05 -2.692557E-15 -7.826660E-15
      1005  15  6.918477E-05  9.000021E+00 -1.114269E-07 -2.699302E-05 -2.978593E-15 -1.010028E-14
      1005  16  6.648244E-05  9.000013E+00 -1.933950E-09 -3.370630E-05  3.061282E-15 -9.234405E-16
      1005  17  7.211594E-05  9.000018E+00  1.774534E-08 -3.144842E-05  3.363988E-16 -6.289425E-15
      1005  18  7.701154E-05  9.000020E+00  8.517749E-08 -2.959658E-05  2.498343E-15 -1.603431E-14
      1005  19  4.934703E-05  9.000014E+00  3.422394E-07 -2.712841E-05 -4.403194E-08  1.905993E-08
      1005  20  5.621462E-05  9.000019E+00  3.549595E-08 -2.567316E-05 -1.352489E-08  3.949982E-08
      1005  21  6.242601E-05  9.000023E+00 -3.285788E-08 -2.462396E-05  1.698216E-08  1.908892E-08
      1005  22  5.721017E-05  9.000013E+00  1.512373E-07 -3.048619E-05 -3.195532E-08 -1.180237E-08
      1005  23  6.340976E-05  9.000018E+00 -7.609319E-08 -2.862703E-05 -1.496633E-08  1.110963E-08
      1005  24  6.891230E-05  9.000021E+00 -1.603525E-07 -2.717392E-05  2.022663E-09 -6.829042E-09
      1005  25  6.632433E-05  9.000013E+00  5.831175E-08 -3.391512E-05  4.754290E-09 -4.266473E-08
      1005  26  7.190518E-05  9.000018E+00  2.534808E-08 -3.165205E-05  8.225207E-09 -1.728052E-08
      1005  27  7.674814E-05  9.000020E+00  4.013730E-08 -2.979503E-05  1.169614E-08 -3.274703E-08
      1006   1  6.600908E-05  9.000024E+00  1.463811E-07 -2.289319E-05 -2.446305E-08 -1.590661E-08
      1006   2  7.045995E-05  9.000024E+00 -3.341674E-08 -1.927134E-05  6.093895E-09 -3.234817E-08
      1006   3  7.486693E-05  9.000025E+00  4.504721E-08 -1.617720E-05  3.665084E-08 -1.873180E-08
      1006   4  7.219062E-05  9.000022E+00  6.695451E-08 -2.517707E-05 -1.251640E-08  8.572223E-09
      1006   5  7.591617E-05  9.000022E+00 -8.429700E-08 -2.115189E-05  1.227903E-08 -1.034267E-08
      1006   6  7.956775E-05  9.000022E+00 -4.742184E-08 -1.765443E-05  3.707445E-08  8.003285E-10
      1006   7  7.912509E-05  9.000020E+00  9.937858E-08 -2.745143E-05 -1.162468E-08  3.305108E-08
      1006   8  8.214741E-05  9.000021E+00  2.826317E-08 -2.302293E-05  7.409229E-09  1.166282E-08
      1006   9  8.506572E-05  9.000020E+00  7.513925E-08 -1.912215E-05  2.644312E-08  2.033248E-08
      1006  10  6.610092E-05  9.000024E+00  1.303228E-07 -2.276169E-05  1.676932E-15  1.360305E-15
      1006  11  7.057389E-05  9.000024E+00 -2.738393E-08 -1.915543E-05  1.039757E-15 -5.792747E-15
      1006  12  7.500295E-05  9.000024E+00  7.317114E-08 -1.607688E-05  5.386055E-15 -1.459029E-14
      1006  13  7.225518E-05  9.000022E+00  3.920154E-08 -2.503820E-05  2.650639E-15 -7.573246E-15
      1006  14  7.600281E-05  9.000022E+00 -8.995886E-08 -2.102862E-05  3.872330E-15 -1.090086E-14
      1006  15  7.967649E-05  9.000022E+00 -3.099261E-08 -1.754675E-05  6.618082E-15 -2.336855E-14
      1006  16  7.916235E-05  9.000020E+00  5.993104E-08 -2.730520E-05  1.139319E-14 -1.881771E-14
      1006  17  8.220677E-05  9.000021E+00  1.090668E-08 -2.289230E-05  1.062143E-14 -1.218632E-14
      1006  18  8.514717E-05  9.000020E+00  7.987384E-08 -1.900711E-05  4.929121E-15 -2.497579E-14
      1006  19  6.600908E-05  9.000024E+00  1.463811E-07 -2.289319E-05  2.446305E-08  1.590661E-08
      1006  20  7.045995E-05  9.000024E+00 -3.341675E-08 -1.927134E-05 -6.093889E-09  3.234816E-08
      1006  21  7.486693E-05  9.000025E+00  4.504724E-08 -1.617720E-05 -3.665083E-08  1.873176E-08
      1006  22  7.219062E-05  9.000022E+00  6.695451E-08 -2.517707E-05  1.251640E-08 -8.572230E-09
      1006  23  7.591617E-05  9.000022E+00 -8.429700E-08 -2.115189E-05 -1.227902E-08  1.034264E-08
      1006  24  7.956775E-05  9.000022E+00 -4.742186E-08 -1.765443E-05 -3.707445E-08 -8.003737E-10
      1006  25  7.912509E-05  9.000020E+00  9.937863E-08 -2.745143E-05  1.162469E-08 -3.305112E-08
      1006  26  8.214741E-05  9.000021E+00  2.826316E-08 -2.302293E-05 -7.409213E-09 -1.166285E-08
      1006  27  8.506572E-05  9.000020E+00  7.513924E-08 -1.912215E-05 -2.644311E-08 -2.033254E-08
      1007   1  7.685197E-05  9.000024E+00  9.908925E-08 -1.387707E-05 -5.239441E-08 -1.372778E-08
      1007   2  7.890401E-05  9.000024E+00 -3.411884E-08 -9.884702E-06  2.907664E-10 -2.118041E-08
      1007   3  8.113368E-05  9.000023E+00  5.409536E-08 -6.215080E-06  5.297596E-08 -1.566667E-08
      1007   4  8.131120E-05  9.000022E+00  3.536042E-08 -1.511060E-05 -4.302058E-08  4.505609E-09
      1007   5  8.295119E-05  9.000021E+00 -8.098719E-08 -1.077376E-05  1.646587E-09 -4.936666E-09
      1007   6  8.475586E-05  9.000021E+00 -6.167394E-09 -6.759666E-06  4.631376E-08 -1.412627E-09
      1007   7  8.623200E-05  9.000020E+00  6.127107E-08 -1.631974E-05 -3.921676E-08  2.273906E-08
      1007   8  8.747108E-05  9.000019E+00 -1.222262E-08 -1.163843E-05 -2.567601E-09  1.130710E-08
      1007   9  8.886188E-05  9.000019E+00  7.519620E-08 -7.279867E-06  3.408154E-08  1.284145E-08
      1007  10  7.689929E-05  9.000024E+00  9.458273E-08 -1.381278E-05  3.537700E-15 -1.096911E-14
      1007  11  7.896162E-05  9.000024E+00 -2.833126E-08 -9.831289E-06 -2.851565E-15  4.733034E-15
      1007  12  8.120159E-05  9.000023E+00  7.017710E-08 -6.172543E-06 -1.063080E-15 -5.780619E-16
      1007  13  8.133949E-05  9.000022E+00  2.269688E-08 -1.504288E-05  1.584242E-15 -1.664484E-14
      1007  14  8.298978E-05  9.000021E+00 -8.335656E-08 -1.071691E-05  1.449689E-15  7.084728E-15
      1007  15  8.480474E-05  9.000021E+00  1.757400E-09 -6.713698E-06  6.772997E-17 -1.274385E-14
      1007  16  8.624125E-05  9.000020E+00  4.045069E-08 -1.624859E-05 -1.095203E-15 -2.117005E-14
      1007  17  8.749063E-05  9.000019E+00 -2.274889E-08 -1.157815E-05 -9.567429E-16  1.106532E-14
      1007  18  8.889173E-05  9.000019E+00  7.496408E-08 -7.230467E-06  2.598998E-15 -7.985710E-15
      1007  19  7.685197E-05  9.000024E+00  9.908925E-08 -1.387707E-05  5.239442E-08  1.372776E-08
      1007  20  7.890401E-05  9.000024E+00 -3.411884E-08 -9.884702E-06 -2.907775E-10  2.118043E-08
      1007  21  8.113368E-05  9.000023E+00  5.409538E-08 -6.215080E-06 -5.297596E-08  1.566666E-08
      1007  22  8.131120E-05  9.000022E+00  3.536040E-08 -1.511060E-05  4.302058E-08 -4.505650E-09
      1007  23  8.295119E-05  9.000021E+00 -8.098718E-08 -1.077376E-05 -1.646593E-09  4.936656E-09
      1007  24  8.475586E-05  9.000021E+00 -6.167378E-09 -6.759666E-06 -4.631375E-08  1.412610E-09
      1007  25  8.623200E-05  9.000020E+00  6.127109E-08 -1.631974E-05  3.921676E-08 -2.273911E-08
      1007  26  8.747108E-05  9.000019E+00 -1.222259E-08 -1.163843E-05  2.567617E-09 -1.130708E-08
      1007  27  8.886188E-05  9.000019E+00  7.519629E-08 -7.279867E-06 -3.408153E-08 -1.284148E-08
      1008   1  8.176299E-05  9.000023E+00  6.449270E-08 -3.865475E-06 -5.631352E-08 -1.385914E-08
      1008   2  8.164670E-05  9.000023E+00 -3.665008E-08 -2.003050E-14  4.691039E-15 -1.720787E-08
      1008   3  8.176299E-05  9.000023E+00  6.449267E-08  3.865475E-06  5.631352E-08 -1.385915E-08
      1008   4  8.530084E-05  9.000021E+00  1.680835E-08 -4.181697E-06 -4.478967E-08 -1.840971E-10
      1008   5  8.518790E-05  9.000021E+00 -7.652074E-08 -2.339012E-14 -3.310729E-15 -3.532780E-09
      1008   6  8.530084E-05  9.000021E+00  1.680836E-08  4.181697E-06  4.478967E-08 -1.840836E-10
      1008   7  8.921189E-05  9.000019E+00  6.950190E-08 -4.497918E-06 -3.326581E-08  1.349101E-08
      1008   8  8.910229E-05  9.000019E+00 -1.601351E-08 -3.532698E-14 -5.974001E-15  1.014230E-08
      1008   9  8.921189E-05  9.000019E+00  6.950193E-08  4.497918E-06  3.326581E-08  1.349101E-08
      1008  10  8.180220E-05  9.000023E+00  6.998484E-08 -3.854321E-06  2.527116E-15 -7.000850E-15
      1008  11  8.168591E-05  9.000023E+00 -3.115794E-08 -3.817757E-14  6.050043E-15 -4.875553E-15
      1008  12  8.180220E-05  9.000023E+00  6.998486E-08  3.854321E-06  5.003945E-15 -1.131761E-14
      1008  13  8.532053E-05  9.000021E+00  1.393467E-08 -4.170542E-06  3.402332E-15 -1.514540E-14
      1008  14  8.520759E-05  9.000021E+00 -7.939443E-08 -3.003302E-14  3.427783E-15 -5.578072E-15
      1008  15  8.532053E-05  9.000021E+00  1.393469E-08  4.170542E-06  2.931474E-15 -1.691931E-14
      1008  16  8.921205E-05  9.000019E+00  5.826245E-08 -4.486763E-06  6.743339E-15 -1.964516E-14
      1008  17  8.910246E-05  9.000019E+00 -2.725300E-08 -3.074567E-14  3.954233E-15 -1.699284E-15
      1008  18  8.921205E-05  9.000019E+00  5.826241E-08  4.486763E-06  1.992864E-16 -1.422031E-14
      1008  19  8.176299E-05  9.000023E+00  6.449272E-08 -3.865475E-06  5.631351E-08  1.385913E-08
      1008  20  8.164670E-05  9.000023E+00 -3.665008E-08 -4.016280E-14  4.372893E-15  1.720787E-08
      1008  21  8.176299E-05  9.000023E+00  6.449269E-08  3.865475E-06 -5.631351E-08  1.385913E-08
      1008  22  8.530084E-05  9.000021E+00  1.680836E-08 -4.181697E-06  4.478967E-08  1.840582E-10
      1008  23  8.518790E-05  9.000021E+00 -7.652074E-08 -2.896405E-14  8.824405E-16  3.532756E-09
      1008  24  8.530084E-05  9.000021E+00  1.680836E-08  4.181697E-06 -4.478967E-08  1.840559E-10
      1008  25  8.921189E-05  9.000019E+00  6.950194E-08 -4.497918E-06  3.326583E-08 -1.349105E-08
      1008  26  8.910229E-05  9.000019E+00 -1.601349E-08 -3.751582E-14  6.243552E-16 -1.014231E-08
      1008  27  8.921189E-05  9.000019E+00  6.950193E-08  4.497918E-06 -3.326582E-08 -1.349104E-08
      1009   1  8.113368E-05  9.000023E+00  5.409537E-08  6.215080E-06 -5.297597E-08 -1.566670E-08
      1009   2  7.890401E-05  9.000024E+00 -3.411885E-08  9.884702E-06 -2.907904E-10 -2.118044E-08
      1009   3  7.685197E-05  9.000024E+00  9.908925E-08  1.387707E-05  5.239439E-08 -1.372778E-08
      1009   4  8.475586E-05  9.000021E+00 -6.167377E-09  6.759666E-06 -4.631377E-08 -1.412664E-09
      1009   5  8.295119E-05  9.000021E+00 -8.098720E-08  1.077376E-05 -1.646598E-09 -4.936685E-09
      1009   6  8.131120E-05  9.000022E+00  3.536042E-08  1.511060E-05  4.302056E-08  4.505608E-09
      1009   7  8.886188E-05  9.000019E+00  7.519621E-08  7.279867E-06 -3.408154E-08  1.284143E-08
      1009   8  8.747108E-05  9.000019E+00 -1.222260E-08  1.163843E-05  2.567612E-09  1.130706E-08
      1009   9  8.623200E-05  9.000020E+00  6.127111E-08  1.631974E-05  3.921676E-08  2.273902E-08
      1009  10  8.120159E-05  9.000023E+00  7.017713E-08  6.172543E-06 -5.224653E-15 -1.458592E-14
      1009  11  7.896162E-05  9.000024E+00 -2.833127E-08  9.831289E-06 -9.399362E-15 -4.692295E-18
      1009  12  7.689929E-05  9.000024E+00  9.458271E-08  1.381278E-05 -1.108899E-14 -1.270003E-15
      1009  13  8.480474E-05  9.000021E+00  1.757402E-09  6.713698E-06 -4.763742E-15 -1.051365E-14
      1009  14  8.298978E-05  9.000021E+00 -8.335657E-08  1.071691E-05 -5.260678E-15 -2.030699E-15
      1009  15  8.133949E-05  9.000022E+00  2.269691E-08  1.504288E-05 -3.969314E-15 -2.514603E-14
      1009  16  8.889173E-05  9.000019E+00  7.496413E-08  7.230467E-06 -4.870072E-15 -1.399534E-14
      1009  17  8.749063E-05  9.000019E+00 -2.274889E-08  1.157815E-05 -4.622226E-15  2.191783E-16
      1009  18  8.624125E-05  9.000020E+00  4.045066E-08  1.624859E-05 -5.849198E-15 -4.201939E-14
      1009  19  8.113368E-05  9.000023E+00  5.409539E-08  6.215080E-06  5.297597E-08  1.566668E-08
      1009  20  7.890401E-05  9.000024E+00 -3.411883E-08  9.884702E-06  2.907640E-10  2.118044E-08
      1009  21  7.685197E-05  9.000024E+00  9.908926E-08  1.387707E-05 -5.239442E-08  1.372777E-08
      1009  22  8.475586E-05  9.000021E+00 -6.167383E-09  6.759666E-06  4.631376E-08  1.412639E-09
      1009  23  8.295119E-05  9.000021E+00 -8.098719E-08  1.077376E-05  1.646583E-09  4.936667E-09
      1009  24  8.131120E-05  9.000022E+00  3.536040E-08  1.511060E-05 -4.302057E-08 -4.505661E-09
      1009  25  8.886188E-05  9.000019E+00  7.519624E-08  7.279867E-06  3.408153E-08 -1.284146E-08
      1009  26  8.747108E-05  9.000019E+00 -1.222260E-08  1.163843E-05 -2.567628E-09 -1.130707E-08
      1009  27  8.623200E-05  9.000020E+00  6.127110E-08  1.631974E-05 -3.921676E-08 -2.273912E-08
      1010   1  7.486693E-05  9.000025E+00  4.504725E-08  1.617720E-05 -3.665086E-08 -1.873181E-08
      1010   2  7.045995E-05  9.000024E+00 -3.341676E-08  1.927134E-05 -6.093900E-09 -3.234817E-08
      1010   3  6.600908E-05  9.000024E+00  1.463811E-07  2.289319E-05  2.446305E-08 -1.590658E-08
      1010   4  7.956775E-05  9.000022E+00 -4.742182E-08  1.765443E-05 -3.707446E-08  8.002884E-10
      1010   5  7.591617E-05  9.000022E+00 -8.429701E-08  2.115189E-05 -1.227903E-08 -1.034266E-08
      1010   6  7.219062E-05  9.000022E+00  6.695451E-08  2.517707E-05  1.251639E-08  8.572250E-09
      1010   7  8.506572E-05  9.000020E+00  7.513924E-08  1.912215E-05 -2.644313E-08  2.033243E-08
      1010   8  8.214741E-05  9.000021E+00  2.826315E-08  2.302293E-05 -7.409223E-09  1.166283E-08
      1010   9  7.912509E-05  9.000020E+00  9.937863E-08  2.745143E-05  1.162469E-08  3.305110E-08
      1010  10  7.500295E-05  9.000024E+00  7.317119E-08  1.607688E-05 -1.466163E-15 -7.813278E-15
      1010  11  7.057389E-05  9.000024E+00 -2.738394E-08  1.915543E-05  7.752780E-15 -4.859320E-15
      1010  12  6.610092E-05  9.000024E+00  1.303228E-07  2.276169E-05  1.992265E-15  4.085667E-15
      1010  13  7.967649E-05  9.000022E+00 -3.099260E-08  1.754675E-05  2.896371E-15 -2.672390E-14
      1010  14  7.600281E-05  9.000022E+00 -8.995886E-08  2.102862E-05  3.775065E-15 -5.256416E-15
      1010  15  7.225518E-05  9.000022E+00  3.920153E-08  2.503820E-05  5.673629E-15 -8.507911E-15
      1010  16  8.514717E-05  9.000020E+00  7.987391E-08  1.900711E-05 -1.329824E-15 -4.692736E-14
      1010  17  8.220677E-05  9.000021E+00  1.090668E-08  2.289230E-05  6.037837E-15 -2.395697E-15
      1010  18  7.916235E-05  9.000020E+00  5.993097E-08  2.730520E-05  1.205490E-14 -1.393535E-14
      1010  19  7.486693E-05  9.000025E+00  4.504726E-08  1.617720E-05  3.665085E-08  1.873179E-08
      1010  20  7.045995E-05  9.000024E+00 -3.341672E-08  1.927134E-05  6.093905E-09  3.234816E-08
      1010  21  6.600908E-05  9.000024E+00  1.463811E-07  2.289319E-05 -2.446304E-08  1.590657E-08
      1010  22  7.956775E-05  9.000022E+00 -4.742185E-08  1.765443E-05  3.707446E-08 -8.003476E-10
      1010  23  7.591617E-05  9.000022E+00 -8.429699E-08  2.115189E-05  1.227903E-08  1.034264E-08
      1010  24  7.219062E-05  9.000022E+00  6.695449E-08  2.517707E-05 -1.251639E-08 -8.572273E-09
      1010  25  8.506572E-05  9.000020E+00  7.513926E-08  1.912215E-05  2.644312E-08 -2.033254E-08
      1010  26  8.214741E-05  9.000021E+00  2.826320E-08  2.302293E-05  7.409229E-09 -1.166285E-08
      1010  27  7.912509E-05  9.000020E+00  9.937860E-08  2.745143E-05 -1.162467E-08 -3.305114E-08
      1011   1  6.242601E-05  9.000023E+00 -3.285790E-08  2.462396E-05  1.698216E-08 -1.908892E-08
      1011   2  5.621462E-05  9.000019E+00  3.549594E-08  2.567316E-05 -1.352490E-08 -3.949982E-08
      1011   3  4.934703E-05  9.000014E+00  3.422394E-07  2.712841E-05 -4.403196E-08 -1.905993E-08
      1011   4  6.891230E-05  9.000021E+00 -1.603524E-07  2.717392E-05  2.022650E-09  6.829016E-09
      1011   5  6.340976E-05  9.000018E+00 -7.609318E-08  2.862703E-05 -1.496633E-08 -1.110966E-08
      1011   6  5.721017E-05  9.000013E+00  1.512373E-07  3.048619E-05 -3.195529E-08  1.180239E-08
      1011   7  7.674814E-05  9.000020E+00  4.013726E-08  2.979503E-05  1.169612E-08  3.274700E-08
      1011   8  7.190518E-05  9.000018E+00  2.534810E-08  3.165205E-05  8.225217E-09  1.728048E-08
      1011   9  6.632433E-05  9.000013E+00  5.831177E-08  3.391512E-05  4.754329E-09  4.266472E-08
      1011  10  6.270754E-05  9.000023E+00  1.995308E-08  2.446061E-05  1.954412E-15  1.680145E-16
      1011  11  5.644351E-05  9.000019E+00  3.566391E-08  2.550463E-05  9.618376E-15 -7.826288E-15
      1011  12  4.952328E-05  9.000013E+00  2.897644E-07  2.695469E-05  7.239314E-15  7.583289E-16
      1011  13  6.918477E-05  9.000021E+00 -1.114269E-07  2.699302E-05  4.260016E-15 -1.405949E-14
      1011  14  6.362958E-05  9.000018E+00 -7.981060E-08  2.844095E-05  6.284022E-15 -6.085450E-15
      1011  15  5.737735E-05  9.000013E+00  9.487691E-08  3.029492E-05  6.929407E-15  7.609168E-16
      1011  16  7.701154E-05  9.000020E+00  8.517751E-08  2.959658E-05  1.150384E-14 -2.530395E-14
      1011  17  7.211594E-05  9.000018E+00  1.774534E-08  3.144842E-05  1.309459E-14 -4.344600E-15
      1011  18  6.648244E-05  9.000013E+00 -1.933997E-09  3.370630E-05  1.196882E-14  4.753061E-15
      1011  19  6.242601E-05  9.000023E+00 -3.285788E-08  2.462396E-05 -1.698214E-08  1.908892E-08
      1011  20  5.621462E-05  9.000019E+00  3.549598E-08  2.567316E-05  1.352492E-08  3.949981E-08
      1011  21  4.934703E-05  9.000014E+00  3.422395E-07  2.712841E-05  4.403197E-08  1.905993E-08
      1011  22  6.891230E-05  9.000021E+00 -1.603525E-07  2.717392E-05 -2.022636E-09 -6.829044E-09
      1011  23  6.340976E-05  9.000018E+00 -7.609318E-08  2.862703E-05  1.496634E-08  1.110964E-08
      1011  24  5.721017E-05  9.000013E+00  1.512373E-07  3.048619E-05  3.195531E-08 -1.180238E-08
      1011  25  7.674814E-05  9.000020E+00  4.013724E-08  2.979503E-05 -1.169610E-08 -3.274706E-08
      1011  26  7.190518E-05  9.000018E+00  2.534810E-08  3.165205E-05 -8.225193E-09 -1.728050E-08
      1011  27  6.632433E-05  9.000013E+00  5.831176E-08  3.391512E-05 -4.754295E-09 -4.266471E-08
      1012   1  4.418313E-05  9.000008E+00 -1.238571E-07  2.667463E-05  1.442087E-07 -9.019177E-09
      1012   2  3.824986E-05  8.999995E+00  5.491890E-08  2.317870E-05 -5.697780E-08 -4.383598E-08
      1012   3  2.983570E-05  8.999973E+00 -3.594480E-07  1.947795E-05 -2.581644E-07 -1.135295E-07
      1012   4  5.207207E-05  9.000008E+00 -3.884004E-07  3.005960E-05  1.302248E-07  2.211485E-08
      1012   5  4.656196E-05  8.999997E+00  1.398112E-07  2.648428E-05 -8.496635E-08 -1.424029E-08
      1012   6  3.860582E-05  8.999977E+00  1.562589E-07  2.270414E-05 -3.001575E-07 -8.547226E-08
      1012   7  6.183882E-05  9.000009E+00 -3.364235E-07  3.377475E-05  1.368781E-07  5.324893E-08
      1012   8  5.671059E-05  8.999999E+00  4.449162E-07  3.012004E-05 -9.231759E-08  1.535539E-08
      1012   9  4.917121E-05  8.999982E+00  7.958713E-07  2.626050E-05 -3.215133E-07 -5.741494E-08
      1012  10  4.459485E-05  9.000008E+00 -9.217779E-08  2.649561E-05  1.927401E-15  2.820830E-15
      1012  11  3.861342E-05  8.999994E+00  3.843363E-08  2.300225E-05 -6.117818E-15 -1.970302E-15
      1012  12  3.015109E-05  8.999973E+00 -4.240979E-07  1.930407E-05  5.544627E-15 -1.593955E-14
      1012  13  5.248830E-05  9.000008E+00 -3.547896E-07  2.986452E-05  1.634478E-15  5.289715E-15
      1012  14  4.693002E-05  8.999996E+00  1.252574E-07  2.629178E-05 -6.152559E-15 -3.589057E-15
      1012  15  3.892572E-05  8.999977E+00  9.354052E-08  2.251420E-05 -5.877158E-16 -3.792730E-14
      1012  16  6.225956E-05  9.000009E+00 -3.008812E-07  3.356361E-05  3.347956E-15  3.818624E-15
      1012  17  5.708316E-05  8.999999E+00  4.322940E-07  2.991147E-05 -9.253630E-15 -5.106047E-15
      1012  18  4.949562E-05  8.999981E+00  7.350844E-07  2.605451E-05 -5.658108E-15 -4.928250E-14
      1012  19  4.418313E-05  9.000008E+00 -1.238570E-07  2.667463E-05 -1.442087E-07  9.019187E-09
      1012  20  3.824986E-05  8.999995E+00  5.491892E-08  2.317870E-05  5.697781E-08  4.383598E-08
      1012  21  2.983570E-05  8.999973E+00 -3.594480E-07  1.947795E-05  2.581644E-07  1.135295E-07
      1012  22  5.207207E-05  9.000008E+00 -3.884004E-07  3.005960E-05 -1.302248E-07 -2.211484E-08
      1012  23  4.656196E-05  8.999997E+00  1.398112E-07  2.648428E-05  8.496633E-08  1.424027E-08
      1012  24  3.860582E-05  8.999977E+00  1.562589E-07  2.270414E-05  3.001575E-07  8.547218E-08
      1012  25  6.183882E-05  9.000009E+00 -3.364235E-07  3.377475E-05 -1.368781E-07 -5.324893E-08
      1012  26  5.671059E-05  8.999999E+00  4.449162E-07  3.012004E-05  9.231757E-08 -1.535540E-08
      1012  27  4.917121E-05  8.999982E+00  7.958713E-07  2.626050E-05  3.215133E-07  5.741485E-08
      1013   1  2.534857E-05  8.999958E+00 -7.350599E-07  1.520142E-05  2.930245E-07 -1.604852E-08
      1013   2  2.674194E-05  8.999927E+00  1.134861E-06  8.186552E-06  7.223618E-08  2.090134E-07
      1013   3  2.190356E-05  8.999878E+00 -5.178309E-07  1.160464E-06 -1.485521E-07  1.209257E-07
      1013   4  3.340612E-05  8.999962E+00 -6.820486E-07  1.813688E-05  3.374851E-07 -5.677574E-09
      1013   5  3.429736E-05  8.999930E+00  5.397149E-07  9.072896E-06  5.119400E-08  1.601439E-07
      1013   6  2.926999E-05  8.999880E+00 -1.030451E-06 -2.307229E-09 -2.350971E-07  1.281563E-08
      1013   7  4.234659E-05  8.999966E+00 -9.202942E-07  2.095081E-05  3.831025E-07  4.693447E-09
      1013   8  4.273338E-05  8.999933E+00 -3.520860E-07  9.837712E-06  3.130856E-08  1.112744E-07
      1013   9  3.751471E-05  8.999883E+00 -1.845125E-06 -1.286606E-06 -3.204854E-07 -9.529441E-08
      1013  10  2.600835E-05  8.999958E+00 -6.716390E-07  1.517244E-05  7.913060E-15 -1.819646E-14
      1013  11  2.733247E-05  8.999926E+00  1.129033E-06  8.225873E-06  5.101871E-16  4.404756E-16
      1013  12  2.242484E-05  8.999877E+00 -5.929066E-07  1.268089E-06 -5.547196E-15  4.070728E-15
      1013  13  3.418543E-05  8.999962E+00 -5.673998E-07  1.808482E-05  8.505066E-15 -3.285659E-14
      1013  14  3.500742E-05  8.999929E+00  5.851154E-07  9.089134E-06  3.440145E-15  1.866228E-15
      1013  15  2.991080E-05  8.999879E+00 -1.054299E-06  8.223460E-08  7.665100E-16 -8.832772E-15
      1013  16  4.324543E-05  8.999966E+00 -7.544173E-07  2.087567E-05  4.204228E-15 -4.692616E-14
      1013  17  4.356297E-05  8.999932E+00 -2.554574E-07  9.830867E-06  3.075939E-15 -4.839744E-17
      1013  18  3.827505E-05  8.999882E+00 -1.817745E-06 -1.225147E-06  4.256578E-15 -1.247402E-14
      1013  19  2.534857E-05  8.999958E+00 -7.350599E-07  1.520142E-05 -2.930244E-07  1.604848E-08
      1013  20  2.674194E-05  8.999927E+00  1.134861E-06  8.186552E-06 -7.223619E-08 -2.090134E-07
      1013  21  2.190356E-05  8.999878E+00 -5.178309E-07  1.160464E-06  1.485521E-07 -1.209257E-07
      1013  22  3.340612E-05  8.999962E+00 -6.820486E-07  1.813688E-05 -3.374851E-07  5.677502E-09
      1013  23  3.429736E-05  8.999930E+00  5.397149E-07  9.072896E-06 -5.119402E-08 -1.601439E-07
      1013  24  2.926998E-05  8.999880E+00 -1.030451E-06 -2.307261E-09  2.350971E-07 -1.281564E-08
      1013  25  4.234659E-05  8.999966E+00 -9.202941E-07  2.095081E-05 -3.831025E-07 -4.693536E-09
      1013  26  4.273338E-05  8.999933E+00 -3.520859E-07  9.837712E-06 -3.130855E-08 -1.112744E-07
      1013  27  3.751471E-05  8.999883E+00 -1.845125E-06 -1.286606E-06  3.204854E-07  9.529439E-08
      1014   1  2.629578E-05  8.999845E+00  6.975771E-07 -1.797323E-06  4.947724E-08 -5.498613E-08
      1014   2  2.505049E-05  8.999785E+00 -7.344775E-07  9.368069E-07 -9.747258E-08 -2.218522E-07
      1014   3  2.593644E-05  8.999730E+00  7.061249E-07  5.221680E-06 -2.444224E-07 -1.603230E-07
      1014   4  3.529627E-05  8.999847E+00  9.650432E-07 -3.827774E-06  2.457266E-08 -1.395381E-07
      1014   5  3.477061E-05  8.999783E+00 -7.138184E-07  1.229132E-06  4.572994E-07 -1.662065E-07
      1014   6  3.614781E-05  8.999723E+00 -5.294513E-08  7.836781E-06  8.900262E-07  3.552022E-08
      1014   7  4.711708E-05  8.999850E+00  1.820874E-06 -6.669022E-06 -5.391751E-08 -2.240901E-07
      1014   8  4.741824E-05  8.999782E+00  1.452711E-07  7.106599E-07  9.584858E-07 -1.105609E-07
      1014   9  4.939384E-05  8.999717E+00  2.764815E-07  9.641085E-06  1.970889E-06  2.313634E-07
      1014  10  2.600631E-05  8.999844E+00  3.097978E-07 -1.527177E-06 -3.011070E-15 -3.392686E-15
      1014  11  2.503931E-05  8.999785E+00 -8.439669E-07  1.556061E-06 -1.454014E-14 -9.198903E-15
      1014  12  2.620355E-05  8.999730E+00  8.749255E-07  6.190044E-06 -2.642895E-14  6.573976E-16
      1014  13  3.561774E-05  8.999846E+00  8.390958E-07 -3.464865E-06 -4.305980E-15 -1.376740E-14
      1014  14  3.537038E-05  8.999783E+00 -5.614759E-07  1.941150E-06 -1.434608E-14 -1.147968E-14
      1014  15  3.702586E-05  8.999724E+00  3.776873E-07  8.897908E-06 -2.547276E-14 -1.469210E-14
      1014  16  4.804949E-05  8.999849E+00  1.956758E-06 -6.213350E-06 -2.031656E-15 -2.357101E-14
      1014  17  4.862894E-05  8.999782E+00  5.594456E-07  1.515441E-06 -1.121125E-14 -7.142522E-15
      1014  18  5.088284E-05  8.999718E+00  9.689458E-07  1.079498E-05 -3.421148E-14 -2.263220E-14
      1014  19  2.629578E-05  8.999845E+00  6.975771E-07 -1.797323E-06 -4.947726E-08  5.498612E-08
      1014  20  2.505049E-05  8.999785E+00 -7.344775E-07  9.368069E-07  9.747257E-08  2.218521E-07
      1014  21  2.593644E-05  8.999730E+00  7.061249E-07  5.221680E-06  2.444224E-07  1.603230E-07
      1014  22  3.529627E-05  8.999847E+00  9.650432E-07 -3.827774E-06 -2.457268E-08  1.395381E-07
      1014  23  3.477061E-05  8.999783E+00 -7.138184E-07  1.229132E-06 -4.572994E-07  1.662065E-07
      1014  24  3.614781E-05  8.999723E+00 -5.294520E-08  7.836781E-06 -8.900262E-07 -3.552024E-08
      1014  25  4.711708E-05  8.999850E+00  1.820874E-06 -6.669022E-06  5.391750E-08  2.240901E-07
      1014  26  4.741824E-05  8.999782E+00  1.452711E-07  7.106599E-07 -9.584858E-07  1.105609E-07
      1014  27  4.939384E-05  8.999717E+00  2.764814E-07  9.641085E-06 -1.970889E-06 -2.313635E-07
      1015   1  1.782809E-05  8.999698E+00 -6.359087E-07  1.034673E-05  9.794756E-08  3.411886E-09
      1015   2  1.170910E-05  8.999643E+00  1.099191E-06  8.907573E-06 -3.231228E-08  3.264970E-08
      1015   3 -1.156929E-06  8.999569E+00 -1.059321E-06  1.706144E-06 -1.625721E-07 -4.407916E-07
      1015   4  2.879223E-05  8.999693E+00 -9.444402E-07  1.701890E-05  1.383901E-06  2.198516E-07
      1015   5  1.724496E-05  8.999645E+00  7.929985E-07  1.467569E-05  3.387807E-08  1.796715E-07
      1015   6 -5.466626E-07  8.999578E+00 -1.902567E-07  6.570214E-06 -1.316145E-06 -3.631877E-07
      1015   7  4.318040E-05  8.999689E+00 -1.246258E-07  2.532589E-05  2.838025E-06  4.362913E-07
      1015   8  2.586852E-05  8.999648E+00  8.303563E-07  2.207863E-05  2.682389E-07  3.266933E-07
      1015   9  2.814958E-06  8.999588E+00  2.375626E-07  1.306910E-05 -2.301547E-06 -2.855838E-07
      1015  10  1.910477E-05  8.999699E+00 -6.406957E-08  1.110441E-05 -2.410611E-14 -1.721635E-15
      1015  11  1.252930E-05  8.999643E+00  1.214551E-06  8.938937E-06 -5.558598E-15 -1.691406E-15
      1015  12 -7.932153E-07  8.999568E+00 -1.400439E-06  1.011190E-06  1.634064E-15  1.761535E-14
      1015  13  2.879784E-05  8.999693E+00 -9.173394E-07  1.762442E-05 -1.713462E-14 -1.635589E-14
      1015  14  1.679410E-05  8.999644E+00  3.636206E-07  1.455490E-05 -4.560207E-15 -2.282342E-15
      1015  15 -1.454005E-06  8.999576E+00 -1.076113E-06  5.723101E-06 -6.430229E-15  2.284031E-14
      1015  16  4.191496E-05  8.999689E+00 -6.422630E-07  2.577925E-05 -2.569151E-14 -2.861874E-14
      1015  17  2.414660E-05  8.999646E+00 -1.437598E-07  2.180567E-05 -4.280501E-15  8.739684E-16
      1015  18  6.365598E-07  8.999586E+00 -1.193032E-06  1.206983E-05 -5.552303E-15  3.464134E-14
      1015  19  1.782809E-05  8.999698E+00 -6.359087E-07  1.034673E-05 -9.794759E-08 -3.411888E-09
      1015  20  1.170910E-05  8.999643E+00  1.099191E-06  8.907573E-06  3.231224E-08 -3.264969E-08
      1015  21 -1.156929E-06  8.999569E+00 -1.059321E-06  1.706144E-06  1.625721E-07  4.407917E-07
      1015  22  2.879223E-05  8.999693E+00 -9.444402E-07  1.701890E-05 -1.383901E-06 -2.198516E-07
      1015  23  1.724496E-05  8.999645E+00  7.929985E-07  1.467569E-05 -3.387809E-08 -1.796715E-07
      1015  24 -5.466627E-07  8.999578E+00 -1.902567E-07  6.570214E-06  1.316145E-06  3.631878E-07
      1015  25  4.318040E-05  8.999689E+00 -1.246257E-07  2.532589E-05 -2.838025E-06 -4.362913E-07
      1015  26  2.586852E-05  8.999648E+00  8.303563E-07  2.207863E-05 -2.682389E-07 -3.266933E-07
      1015  27  2.814958E-06  8.999588E+00  2.375626E-07  1.306910E-05  2.301547E-06  2.855838E-07
      1101   1  6.865037E-06  8.999603E+00  1.621769E-06 -1.731454E-05  1.275676E-06  2.156580E-06
      1101   2  2.938262E-05  8.999645E+00 -3.514502E-07 -3.040361E-05  1.385549E-07 -1.440346E-06
      1101   3  5.243369E-05  8.999687E+00  4.705057E-07 -3.546383E-05 -9.985664E-07  4.454507E-07
      1101   4  1.188288E-05  8.999629E+00 -9.437731E-07 -3.230877E-05 -3.658940E-06  1.366662E-06
      1101   5  4.025569E-05  8.999651E+00  2.744619E-06 -4.317968E-05  1.347043E-06 -2.251465E-06
      1101   6  6.367928E-05  8.999666E+00 -3.564832E-06 -4.602173E-05  6.353026E-06 -3.868690E-07
      1101   7  1.944521E-05  8.999656E+00 -6.258027E-06 -5.199356E-05 -9.418299E-06  5.767447E-07
      1101   8  5.532275E-05  8.999658E+00  6.940781E-06 -6.064630E-05  1.730788E-06 -3.062583E-06
      1101   9  8.076833E-05  8.999649E+00 -2.651276E-06 -6.127019E-05  1.287987E-05 -1.219189E-06
      1101  10  3.329550E-06  8.999595E+00 -1.696976E-06 -1.723830E-05 -8.150553E-15 -5.092956E-15
      1101  11  2.767895E-05  8.999642E+00 -1.838374E-06 -2.777607E-05 -7.394831E-15 -4.557524E-15
      1101  12  5.256185E-05  8.999688E+00  8.154037E-07 -3.028498E-05  4.675722E-15  1.239483E-14
      1101  13  1.281218E-05  8.999624E+00 -2.349038E-06 -3.162193E-05  4.001501E-15 -3.148560E-15
      1101  14  4.301682E-05  8.999650E+00  3.171176E-06 -3.994152E-05 -9.173447E-16 -1.273956E-15
      1101  15  6.827222E-05  8.999669E+00 -1.306454E-06 -4.023228E-05  2.053649E-15  1.111696E-14
      1101  16  2.483930E-05  8.999652E+00 -5.749812E-06 -5.069611E-05  2.631304E-15 -1.183234E-14
      1101  17  6.254866E-05  8.999659E+00  9.280818E-06 -5.679754E-05 -1.074444E-15 -4.719737E-15
      1101  18  8.982606E-05  8.999654E+00  1.520583E-06 -5.487013E-05 -1.217824E-14  4.524104E-15
      1101  19  6.865037E-06  8.999603E+00  1.621769E-06 -1.731454E-05 -1.275676E-06 -2.156580E-06
      1101  20  2.938262E-05  8.999645E+00 -3.514502E-07 -3.040361E-05 -1.385549E-07  1.440346E-06
      1101  21  5.243369E-05  8.999687E+00  4.705057E-07 -3.546383E-05  9.985664E-07 -4.454506E-07
      1101  22  1.188288E-05  8.999629E+00 -9.437731E-07 -3.230877E-05  3.658940E-06 -1.366662E-06
      1101  23  4.025569E-05  8.999651E+00  2.744619E-06 -4.317968E-05 -1.347043E-06  2.251465E-06
      1101  24  6.367928E-05  8.999666E+00 -3.564832E-06 -4.602173E-05 -6.353026E-06  3.868690E-07
      1101  25  1.944521E-05  8.999656E+00 -6.258027E-06 -5.199356E-05  9.418299E-06 -5.767447E-07
      1101  26  5.532275E-05  8.999658E+00  6.940781E-06 -6.064630E-05 -1.730788E-06  3.062583E-06
      1101  27  8.076833E-05  8.999649E+00 -2.651276E-06 -6.127019E-05 -1.287987E-05  1.219189E-06
      1102   1  6.216035E-05  8.999717E+00  2.027675E-06 -1.382665E-05 -6.372591E-07  1.398179E-06
      1102   2  5.471657E-05  8.999776E+00 -9.385087E-07  1.534053E-06 -2.306414E-07 -8.928671E-08
      1102   3  5.276768E-05  8.999849E+00  1.235219E-06  9.834812E-06  1.759763E-07 -5.490651E-07
      1102   4  8.319703E-05  8.999696E+00 -1.682607E-07 -1.491743E-05  5.321458E-06  7.201310E-07
      1102   5  7.143931E-05  8.999769E+00 -3.137171E-07  3.623871E-06  3.066622E-06 -2.159815E-07
      1102   6  6.414881E-05  8.999854E+00  2.282800E-06  1.510523E-05  8.117856E-07 -1.244065E-07
      1102   7  1.079054E-04  8.999678E+00  2.002473E-06 -1.334657E-05  1.179053E-05  4.208279E-08
      1102   8  9.081309E-05  8.999764E+00  2.296072E-06  8.375337E-06  6.874243E-06 -3.426763E-07
      1102   9  7.716026E-05  8.999860E+00  2.933707E-06  2.303730E-05  1.957953E-06  3.002521E-07
      1102  10  6.340616E-05  8.999719E+00  3.068366E-06 -9.489315E-06  9.263316E-15  2.122198E-14
      1102  11  5.543435E-05  8.999777E+00 -4.258501E-07  3.489917E-06 -9.227246E-16  1.554303E-14
      1102  12  5.295743E-05  8.999849E+00  1.219844E-06  9.409202E-06 -8.051973E-15 -2.014300E-14
      1102  13  8.027526E-05  8.999697E+00 -9.136738E-07 -1.075611E-05  6.336328E-15  1.687978E-14
      1102  14  6.798952E-05  8.999768E+00 -1.587163E-06  5.403724E-06  9.414541E-15  1.068200E-14
      1102  15  6.017098E-05  8.999852E+00  4.813200E-07  1.450361E-05  6.163374E-15 -8.785277E-15
      1102  16  1.008161E-04  8.999677E+00 -5.290446E-07 -9.361253E-06 -1.199173E-14  5.319961E-15
      1102  17  8.319572E-05  8.999761E+00 -7.634788E-07  9.979179E-06  9.713420E-15 -7.118624E-15
      1102  18  6.901485E-05  8.999856E+00 -6.538774E-07  2.225966E-05  1.460895E-14 -2.460328E-14
      1102  19  6.216035E-05  8.999717E+00  2.027675E-06 -1.382665E-05  6.372591E-07 -1.398179E-06
      1102  20  5.471657E-05  8.999776E+00 -9.385087E-07  1.534053E-06  2.306414E-07  8.928669E-08
      1102  21  5.276768E-05  8.999849E+00  1.235219E-06  9.834812E-06 -1.759763E-07  5.490651E-07
      1102  22  8.319703E-05  8.999696E+00 -1.682607E-07 -1.491743E-05 -5.321458E-06 -7.201310E-07
      1102  23  7.143931E-05  8.999769E+00 -3.137171E-07  3.623871E-06 -3.066622E-06  2.159815E-07
      1102  24  6.414881E-05  8.999854E+00  2.282800E-06  1.510523E-05 -8.117856E-07  1.244065E-07
      1102  25  1.079054E-04  8.999678E+00  2.002473E-06 -1.334657E-05 -1.179053E-05 -4.208279E-08
      1102  26  9.081309E-05  8.999764E+00  2.296072E-06  8.375337E-06 -6.874243E-06  3.426763E-07
      1102  27  7.716026E-05  8.999860E+00  2.933707E-06  2.303730E-05 -1.957953E-06 -3.002522E-07
      1103   1  4.321900E-05  8.999886E+00 -1.524507E-06  1.522328E-06  1.327044E-07 -3.950110E-07
      1103   2  4.970720E-05  8.999938E+00  6.748730E-07 -1.127534E-05 -1.190553E-07 -1.145133E-07
      1103   3  4.877304E-05  8.999969E+00 -8.551521E-07 -2.281505E-05 -3.708150E-07  9.577957E-08
      1103   4  5.470921E-05  8.999895E+00 -3.492023E-07  2.286115E-06 -6.551421E-07  1.035084E-07
      1103   5  6.195105E-05  8.999945E+00  1.089257E-06 -1.246876E-05 -4.976322E-07  8.647464E-08
      1103   6  6.184073E-05  8.999974E+00 -1.037878E-06 -2.596569E-05 -3.401224E-07 -7.639787E-10
      1103   7  6.789978E-05  8.999904E+00 -6.879539E-09  2.631460E-06 -1.532683E-06  6.020278E-07
      1103   8  7.607464E-05  8.999952E+00  1.089231E-06 -1.408063E-05 -9.659034E-07  2.874626E-07
      1103   9  7.696755E-05  8.999979E+00 -1.216441E-06 -2.953477E-05 -3.991239E-07 -9.730751E-08
      1103  10  4.434464E-05  8.999886E+00 -1.248688E-06  8.454908E-07 -7.824366E-15 -2.303341E-14
      1103  11  5.069993E-05  8.999938E+00  8.177808E-07 -1.161889E-05  1.931729E-15 -1.550250E-15
      1103  12  4.963286E-05  8.999968E+00 -8.451554E-07 -2.282533E-05  1.452806E-14 -7.452904E-15
      1103  13  5.641809E-05  8.999895E+00  1.765757E-07  1.564973E-06  4.140135E-16 -1.436976E-14
      1103  14  6.352701E-05  8.999945E+00  1.482124E-06 -1.285662E-05  4.737827E-15 -8.243938E-15
      1103  15  6.328379E-05  8.999973E+00 -7.779223E-07 -2.602027E-05  9.636458E-15 -9.679173E-16
      1103  16  7.019190E-05  8.999904E+00  7.688576E-07  1.866015E-06  1.604024E-14 -3.038373E-14
      1103  17  7.823385E-05  8.999952E+00  1.732057E-06 -1.451280E-05  8.665224E-15 -2.523010E-14
      1103  18  7.899384E-05  8.999979E+00 -7.065255E-07 -2.963366E-05  1.441678E-14  1.296180E-15
      1103  19  4.321900E-05  8.999886E+00 -1.524507E-06  1.522329E-06 -1.327045E-07  3.950110E-07
      1103  20  4.970720E-05  8.999938E+00  6.748730E-07 -1.127534E-05  1.190553E-07  1.145133E-07
      1103  21  4.877304E-05  8.999969E+00 -8.551521E-07 -2.281505E-05  3.708150E-07 -9.577958E-08
      1103  22  5.470921E-05  8.999895E+00 -3.492023E-07  2.286115E-06  6.551421E-07 -1.035084E-07
      1103  23  6.195105E-05  8.999945E+00  1.089257E-06 -1.246876E-05  4.976323E-07 -8.647464E-08
      1103  24  6.184073E-05  8.999974E+00 -1.037878E-06 -2.596569E-05  3.401224E-07  7.639724E-10
      1103  25  6.789978E-05  8.999904E+00 -6.879690E-09  2.631460E-06  1.532683E-06 -6.020279E-07
      1103  26  7.607464E-05  8.999952E+00  1.089231E-06 -1.408063E-05  9.659034E-07 -2.874626E-07
      1103  27  7.696755E-05  8.999979E+00 -1.216441E-06 -2.953477E-05  3.991240E-07  9.730752E-08
      1104   1  5.532875E-05  8.999983E+00  3.813991E-07 -2.808898E-05  2.961397E-07  1.117180E-07
      1104   2  6.287873E-05  9.000000E+00  1.890177E-07 -3.211195E-05  9.055914E-08  2.639008E-08
      1104   3  6.830410E-05  9.000010E+00 -1.486363E-07 -3.592804E-05 -1.150214E-07 -2.040090E-08
      1104   4  6.758253E-05  8.999986E+00 -2.792130E-07 -3.132716E-05  1.787743E-07 -3.966924E-08
      1104   5  7.499808E-05  9.000001E+00 -1.562775E-07 -3.500457E-05  6.835152E-08 -1.593570E-08
      1104   6  8.025047E-05  9.000009E+00 -2.685342E-07 -3.847509E-05 -4.207126E-08  4.633477E-08
      1104   7  8.215741E-05  8.999990E+00 -6.859487E-07 -3.489500E-05  2.711783E-08 -1.910565E-07
      1104   8  8.950710E-05  9.000003E+00 -8.767124E-08 -3.822685E-05  1.185280E-08 -5.826152E-08
      1104   9  9.465511E-05  9.000010E+00  1.854947E-07 -4.135180E-05 -3.412207E-09  1.130704E-07
      1104  10  5.542523E-05  8.999982E+00  7.538446E-08 -2.784527E-05  1.530512E-14 -4.718522E-15
      1104  11  6.317506E-05  8.999999E+00  8.285232E-08 -3.181133E-05  8.317797E-15  1.154836E-14
      1104  12  6.880028E-05  9.000010E+00 -5.495261E-08 -3.557049E-05  1.028364E-14  5.545275E-15
      1104  13  6.777862E-05  8.999985E+00 -5.425399E-07 -3.101683E-05  1.142174E-14  1.702946E-15
      1104  14  7.539402E-05  9.000001E+00 -2.197552E-07 -3.463733E-05  2.275534E-15  4.933500E-15
      1104  15  8.084627E-05  9.000009E+00 -1.321627E-07 -3.805093E-05  2.519550E-15  6.481775E-15
      1104  16  8.245311E-05  8.999989E+00 -9.065879E-07 -3.451806E-05  6.872832E-15  5.034684E-15
      1104  17  9.000265E-05  9.000003E+00 -1.084611E-07 -3.779299E-05 -2.952245E-15 -6.430397E-15
      1104  18  9.535050E-05  9.000010E+00  3.645539E-07 -4.086103E-05 -1.238370E-15 -3.547280E-15
      1104  19  5.532875E-05  8.999983E+00  3.813990E-07 -2.808898E-05 -2.961397E-07 -1.117180E-07
      1104  20  6.287873E-05  9.000000E+00  1.890177E-07 -3.211195E-05 -9.055912E-08 -2.639009E-08
      1104  21  6.830410E-05  9.000010E+00 -1.486364E-07 -3.592804E-05  1.150214E-07  2.040093E-08
      1104  22  6.758253E-05  8.999986E+00 -2.792130E-07 -3.132716E-05 -1.787743E-07  3.966924E-08
      1104  23  7.499808E-05  9.000001E+00 -1.562775E-07 -3.500457E-05 -6.835152E-08  1.593574E-08
      1104  24  8.025047E-05  9.000009E+00 -2.685342E-07 -3.847509E-05  4.207127E-08 -4.633474E-08
      1104  25  8.215741E-05  8.999990E+00 -6.859488E-07 -3.489500E-05 -2.711782E-08  1.910565E-07
      1104  26  8.950710E-05  9.000003E+00 -8.767120E-08 -3.822685E-05 -1.185281E-08  5.826151E-08
      1104  27  9.465511E-05  9.000010E+00  1.854947E-07 -4.135180E-05  3.412208E-09 -1.130704E-07
      1105   1  7.252689E-05  9.000013E+00  2.697039E-07 -3.575790E-05  4.730412E-09 -5.805924E-08
      1105   2  7.719532E-05  9.000017E+00 -1.943832E-08 -3.295805E-05 -1.976553E-09 -9.412652E-08
      1105   3  8.146714E-05  9.000019E+00  2.166626E-08 -3.108791E-05 -8.683515E-09 -1.953519E-08
      1105   4  8.374172E-05  9.000012E+00  1.500384E-07 -3.787792E-05  7.180884E-08  3.049001E-08
      1105   5  8.708365E-05  9.000015E+00 -1.760534E-08 -3.459924E-05  4.046317E-08 -3.967652E-08
      1105   6  8.991830E-05  9.000017E+00 -1.132056E-07 -3.225027E-05  9.117527E-09  8.154547E-10
      1105   7  9.612837E-05  9.000012E+00  1.221113E-07 -4.002736E-05  1.108070E-07  1.190392E-07
      1105   8  9.819996E-05  9.000014E+00  2.070072E-07 -3.626985E-05  5.482264E-08  1.477341E-08
      1105   9  9.965361E-05  9.000015E+00  1.057435E-07 -3.344205E-05 -1.161702E-09  2.116612E-08
      1105  10  7.273302E-05  9.000013E+00  2.764382E-07 -3.541935E-05  4.985905E-15  8.206868E-16
      1105  11  7.742628E-05  9.000017E+00  1.211496E-08 -3.267948E-05  2.407053E-15 -1.452134E-16
      1105  12  8.172291E-05  9.000019E+00  7.803834E-08 -3.086932E-05  5.730821E-15 -9.459005E-15
      1105  13  8.384290E-05  9.000012E+00  1.117907E-07 -3.753111E-05  6.209779E-15  3.803769E-15
      1105  14  8.720965E-05  9.000015E+00 -3.103409E-08 -3.431240E-05  4.787534E-15 -1.952151E-15
      1105  15  9.006912E-05  9.000017E+00 -1.018155E-07 -3.202341E-05  7.021209E-15 -6.331187E-15
      1105  16  9.612459E-05  9.000011E+00  3.888164E-08 -3.967227E-05  6.783211E-15  8.004315E-16
      1105  17  9.822100E-05  9.000014E+00  1.485966E-07 -3.597474E-05  9.937736E-15 -6.517996E-15
      1105  18  9.969947E-05  9.000015E+00  7.215164E-08 -3.320691E-05  1.445393E-14 -1.827156E-14
      1105  19  7.252689E-05  9.000013E+00  2.697039E-07 -3.575790E-05 -4.730404E-09  5.805924E-08
      1105  20  7.719532E-05  9.000017E+00 -1.943830E-08 -3.295805E-05  1.976566E-09  9.412648E-08
      1105  21  8.146714E-05  9.000019E+00  2.166626E-08 -3.108791E-05  8.683538E-09  1.953518E-08
      1105  22  8.374172E-05  9.000012E+00  1.500384E-07 -3.787792E-05 -7.180883E-08 -3.049000E-08
      1105  23  8.708365E-05  9.000015E+00 -1.760532E-08 -3.459924E-05 -4.046317E-08  3.967656E-08
      1105  24  8.991830E-05  9.000017E+00 -1.132056E-07 -3.225027E-05 -9.117508E-09 -8.154899E-10
      1105  25  9.612837E-05  9.000012E+00  1.221113E-07 -4.002736E-05 -1.108070E-07 -1.190392E-07
      1105  26  9.819996E-05  9.000014E+00  2.070073E-07 -3.626985E-05 -5.482263E-08 -1.477341E-08
      1105  27  9.965361E-05  9.000015E+00  1.057435E-07 -3.344205E-05  1.161722E-09 -2.116615E-08
      1106   1  8.352835E-05  9.000019E+00  1.041135E-07 -2.861250E-05 -1.673967E-08  9.941129E-09
      1106   2  8.592997E-05  9.000019E+00 -2.919792E-08 -2.377521E-05  3.294065E-09 -1.447320E-08
      1106   3  8.831842E-05  9.000019E+00  2.245085E-08 -1.976829E-05  2.332779E-08 -7.420786E-09
      1106   4  9.148442E-05  9.000017E+00  1.896320E-08 -2.951550E-05 -3.653693E-08  1.994983E-08
      1106   5  9.279873E-05  9.000017E+00 -6.214419E-08 -2.446354E-05 -7.305760E-09 -5.905191E-09
      1106   6  9.406840E-05  9.000017E+00 -3.171373E-08 -2.024196E-05  2.192540E-08 -2.935102E-10
      1106   7  9.983130E-05  9.000015E+00 -4.955297E-08 -3.037383E-05 -6.944632E-08  2.995852E-08
      1106   8  1.000845E-04  9.000015E+00 -1.726645E-08 -2.510721E-05 -3.101771E-08  2.662779E-09
      1106   9  1.002617E-04  9.000014E+00  5.313580E-08 -2.067097E-05  7.410891E-09  6.833772E-09
      1106  10  8.357432E-05  9.000019E+00  7.933340E-08 -2.846163E-05  1.229520E-14 -8.948459E-15
      1106  11  8.600382E-05  9.000019E+00 -2.609656E-08 -2.362924E-05  8.336552E-15 -7.485197E-15
      1106  12  8.842015E-05  9.000019E+00  5.343360E-08 -1.962723E-05  3.622095E-15 -2.628123E-14
      1106  13  9.152181E-05  9.000017E+00 -9.493427E-09 -2.935533E-05  7.640827E-15 -1.372325E-14
      1106  14  9.286400E-05  9.000017E+00 -6.271933E-08 -2.430828E-05  6.877291E-15 -1.609019E-14
      1106  15  9.416156E-05  9.000017E+00 -4.407375E-09 -2.009160E-05  2.420205E-15 -1.409261E-14
      1106  16  9.986011E-05  9.000015E+00 -8.168613E-08 -3.020437E-05  1.000450E-14 -2.912647E-14
      1106  17  1.001412E-04  9.000015E+00 -2.151800E-08 -2.494266E-05  6.076754E-15 -2.994346E-14
      1106  18  1.003462E-04  9.000014E+00  7.676566E-08 -2.051132E-05 -1.320825E-15 -1.620861E-14
      1106  19  8.352835E-05  9.000019E+00  1.041135E-07 -2.861250E-05  1.673969E-08 -9.941148E-09
      1106  20  8.592997E-05  9.000019E+00 -2.919795E-08 -2.377521E-05 -3.294046E-09  1.447315E-08
      1106  21  8.831841E-05  9.000019E+00  2.245080E-08 -1.976829E-05 -2.332779E-08  7.420749E-09
      1106  22  9.148442E-05  9.000017E+00  1.896318E-08 -2.951550E-05  3.653694E-08 -1.994987E-08
      1106  23  9.279873E-05  9.000017E+00 -6.214422E-08 -2.446354E-05  7.305775E-09  5.905163E-09
      1106  24  9.406840E-05  9.000017E+00 -3.171372E-08 -2.024196E-05 -2.192541E-08  2.934797E-10
      1106  25  9.983130E-05  9.000015E+00 -4.955311E-08 -3.037383E-05  6.944634E-08 -2.995859E-08
      1106  26  1.000845E-04  9.000015E+00 -1.726647E-08 -2.510721E-05  3.101772E-08 -2.662849E-09
      1106  27  1.002617E-04  9.000014E+00  5.313579E-08 -2.067097E-05 -7.410892E-09 -6.833799E-09
      1107   1  8.924531E-05  9.000019E+00  2.885568E-08 -1.687228E-05 -3.062860E-08 -4.510495E-09
      1107   2  9.020333E-05  9.000018E+00 -2.330265E-08 -1.195381E-05 -2.190498E-09 -1.244587E-08
      1107   3  9.124919E-05  9.000018E+00  1.088917E-08 -7.493063E-06  2.624762E-08 -5.776188E-09
      1107   4  9.463226E-05  9.000016E+00  2.250669E-08 -1.722048E-05 -3.816703E-09  1.710196E-09
      1107   5  9.501092E-05  9.000016E+00 -1.646871E-08 -1.219941E-05  4.422259E-09 -7.899927E-09
      1107   6  9.546282E-05  9.000015E+00 -3.172491E-09 -7.636050E-06  1.266123E-08 -2.905067E-09
      1107   7  1.001300E-04  9.000014E+00  3.149760E-08 -1.752851E-05  1.913323E-08  7.930863E-09
      1107   8  9.993703E-05  9.000013E+00  2.372750E-08 -1.240482E-05  7.173064E-09 -3.354054E-09
      1107   9  9.980270E-05  9.000013E+00  3.415082E-08 -7.738857E-06 -4.787125E-09 -3.394780E-11
      1107  10  8.926992E-05  9.000019E+00  3.255086E-08 -1.677802E-05 -3.164586E-15 -1.873034E-14
      1107  11  9.023474E-05  9.000018E+00 -1.280214E-08 -1.188018E-05 -4.527145E-15  1.270797E-14
      1107  12  9.128740E-05  9.000018E+00  2.819489E-08 -7.440057E-06  2.415327E-15 -4.058990E-15
      1107  13  9.462077E-05  9.000016E+00  1.073218E-08 -1.712396E-05 -1.968592E-15 -9.455795E-15
      1107  14  9.500623E-05  9.000016E+00 -2.143792E-08 -1.212351E-05  1.620481E-16  1.025773E-15
      1107  15  9.546494E-05  9.000015E+00 -1.336398E-09 -7.580776E-06  3.030530E-15 -1.391756E-15
      1107  16  1.000824E-04  9.000014E+00  4.253378E-09 -1.742971E-05 -3.278021E-16 -1.203134E-14
      1107  17  9.989625E-05  9.000013E+00  3.288675E-09 -1.232665E-05  1.299601E-15 -1.249908E-14
      1107  18  9.976872E-05  9.000013E+00  2.051715E-08 -7.681315E-06  5.567983E-15 -1.373690E-14
      1107  19  8.924531E-05  9.000019E+00  2.885567E-08 -1.687228E-05  3.062859E-08  4.510455E-09
      1107  20  9.020333E-05  9.000018E+00 -2.330268E-08 -1.195381E-05  2.190484E-09  1.244586E-08
      1107  21  9.124919E-05  9.000018E+00  1.088915E-08 -7.493063E-06 -2.624761E-08  5.776172E-09
      1107  22  9.463226E-05  9.000016E+00  2.250672E-08 -1.722048E-05  3.816699E-09 -1.710225E-09
      1107  23  9.501092E-05  9.000016E+00 -1.646873E-08 -1.219941E-05 -4.422268E-09  7.899967E-09
      1107  24  9.546282E-05  9.000015E+00 -3.172483E-09 -7.636050E-06 -1.266122E-08  2.905048E-09
      1107  25  1.001300E-04  9.000014E+00  3.149757E-08 -1.752851E-05 -1.913323E-08 -7.930894E-09
      1107  26  9.993703E-05  9.000013E+00  2.372753E-08 -1.240482E-05 -7.173047E-09  3.354031E-09
      1107  27  9.980270E-05  9.000013E+00  3.415076E-08 -7.738857E-06  4.787135E-09  3.391103E-11
      1108   1  9.151487E-05  9.000017E+00  9.250862E-09 -4.646431E-06 -2.650430E-08 -2.586036E-09
      1108   2  9.145799E-05  9.000017E+00 -2.137640E-08 -3.883931E-14  2.242144E-15 -4.827118E-09
      1108   3  9.151487E-05  9.000017E+00  9.250888E-09  4.646431E-06  2.650430E-08 -2.586055E-09
      1108   4  9.560463E-05  9.000015E+00  7.712117E-09 -4.705567E-06 -1.479227E-08 -2.022608E-10
      1108   5  9.554999E-05  9.000015E+00 -1.768596E-08 -4.293704E-14  1.109011E-15 -2.443315E-09
      1108   6  9.560463E-05  9.000015E+00  7.712109E-09  4.705567E-06  1.479228E-08 -2.022798E-10
      1108   7  9.970937E-05  9.000013E+00  1.415924E-08 -4.764703E-06 -3.080228E-09  2.181496E-09
      1108   8  9.965698E-05  9.000013E+00 -6.009805E-09 -6.110956E-14  9.564809E-15 -5.954884E-11
      1108   9  9.970937E-05  9.000013E+00  1.415919E-08  4.764703E-06  3.080246E-09  2.181494E-09
      1108  10  9.152742E-05  9.000017E+00  1.669094E-08 -4.635966E-06  5.104593E-15 -1.015822E-14
      1108  11  9.147055E-05  9.000017E+00 -1.393630E-08 -3.950106E-14  2.213684E-15  5.520421E-15
      1108  12  9.152742E-05  9.000017E+00  1.669093E-08  4.635966E-06 -2.322614E-16 -1.328774E-14
      1108  13  9.559887E-05  9.000015E+00  7.303585E-09 -4.695102E-06  3.800136E-15 -3.352484E-15
      1108  14  9.554423E-05  9.000015E+00 -1.809451E-08 -3.695588E-14  2.120326E-15  6.716786E-15
      1108  15  9.559887E-05  9.000015E+00  7.303570E-09  4.695102E-06 -9.593259E-16 -2.351150E-15
      1108  16  9.968530E-05  9.000013E+00  5.902015E-09 -4.754238E-06  6.437675E-15 -8.549562E-15
      1108  17  9.963291E-05  9.000013E+00 -1.426693E-08 -4.825644E-14  5.710152E-15 -2.175854E-15
      1108  18  9.968530E-05  9.000013E+00  5.901970E-09  4.754238E-06 -1.601669E-15 -8.738147E-15
      1108  19  9.151487E-05  9.000017E+00  9.250873E-09 -4.646431E-06  2.650430E-08  2.586017E-09
      1108  20  9.145799E-05  9.000017E+00 -2.137637E-08 -4.344607E-14 -6.179917E-16  4.827098E-09
      1108  21  9.151487E-05  9.000017E+00  9.250885E-09  4.646431E-06 -2.650430E-08  2.586029E-09
      1108  22  9.560463E-05  9.000015E+00  7.712130E-09 -4.705567E-06  1.479228E-08  2.022427E-10
      1108  23  9.554999E-05  9.000015E+00 -1.768596E-08 -3.316358E-14 -4.293115E-15  2.443352E-09
      1108  24  9.560463E-05  9.000015E+00  7.712130E-09  4.705567E-06 -1.479229E-08  2.022684E-10
      1108  25  9.970937E-05  9.000013E+00  1.415916E-08 -4.764703E-06  3.080240E-09 -2.181510E-09
      1108  26  9.965698E-05  9.000013E+00 -6.009786E-09 -4.596579E-14 -8.171852E-15  5.954928E-11
      1108  27  9.970937E-05  9.000013E+00  1.415914E-08  4.764703E-06 -3.080257E-09 -2.181515E-09
      1109   1  9.124919E-05  9.000018E+00  1.088913E-08  7.493063E-06 -2.624763E-08 -5.776188E-09
      1109   2  9.020333E-05  9.000018E+00 -2.330264E-08  1.195381E-05  2.190483E-09 -1.244588E-08
      1109   3  8.924531E-05  9.000019E+00  2.885567E-08  1.687228E-05  3.062858E-08 -4.510545E-09
      1109   4  9.546282E-05  9.000015E+00 -3.172494E-09  7.636050E-06 -1.266122E-08 -2.905066E-09
      1109   5  9.501092E-05  9.000016E+00 -1.646869E-08  1.219941E-05 -4.422265E-09 -7.899966E-09
      1109   6  9.463226E-05  9.000016E+00  2.250668E-08  1.722048E-05  3.816683E-09  1.710135E-09
      1109   7  9.980270E-05  9.000013E+00  3.415075E-08  7.738857E-06  4.787141E-09 -3.396909E-11
      1109   8  9.993703E-05  9.000013E+00  2.372751E-08  1.240482E-05 -7.173045E-09 -3.354094E-09
      1109   9  1.001300E-04  9.000014E+00  3.149767E-08  1.752851E-05 -1.913325E-08  7.930818E-09
      1109  10  9.128740E-05  9.000018E+00  2.819490E-08  7.440057E-06 -5.427872E-15 -1.012665E-14
      1109  11  9.023474E-05  9.000018E+00 -1.280215E-08  1.188018E-05 -3.366899E-15  1.764969E-15
      1109  12  8.926992E-05  9.000019E+00  3.255084E-08  1.677802E-05 -7.105413E-15 -4.424578E-14
      1109  13  9.546494E-05  9.000015E+00 -1.336432E-09  7.580776E-06 -3.102178E-15 -2.888238E-15
      1109  14  9.500623E-05  9.000016E+00 -2.143793E-08  1.212351E-05 -8.678330E-17 -9.611810E-15
      1109  15  9.462077E-05  9.000016E+00  1.073220E-08  1.712396E-05 -2.091407E-15 -2.740439E-14
      1109  16  9.976872E-05  9.000013E+00  2.051709E-08  7.681315E-06 -1.127406E-15 -1.523725E-14
      1109  17  9.989625E-05  9.000013E+00  3.288671E-09  1.232665E-05  3.256325E-15 -2.629268E-14
      1109  18  1.000824E-04  9.000014E+00  4.253419E-09  1.742971E-05 -1.794760E-15 -2.890466E-14
      1109  19  9.124919E-05  9.000018E+00  1.088912E-08  7.493063E-06  2.624763E-08  5.776174E-09
      1109  20  9.020333E-05  9.000018E+00 -2.330266E-08  1.195381E-05 -2.190498E-09  1.244586E-08
      1109  21  8.924531E-05  9.000019E+00  2.885570E-08  1.687228E-05 -3.062860E-08  4.510471E-09
      1109  22  9.546282E-05  9.000015E+00 -3.172481E-09  7.636050E-06  1.266122E-08  2.905054E-09
      1109  23  9.501092E-05  9.000016E+00 -1.646873E-08  1.219941E-05  4.422257E-09  7.899976E-09
      1109  24  9.463226E-05  9.000016E+00  2.250673E-08  1.722048E-05 -3.816689E-09 -1.710203E-09
      1109  25  9.980270E-05  9.000013E+00  3.415070E-08  7.738857E-06 -4.787145E-09  3.392177E-11
      1109  26  9.993703E-05  9.000013E+00  2.372751E-08  1.240482E-05  7.173043E-09  3.354048E-09
      1109  27  1.001300E-04  9.000014E+00  3.149762E-08  1.752851E-05  1.913325E-08 -7.930880E-09
      1110   1  8.831841E-05  9.000019E+00  2.245076E-08  1.976829E-05 -2.332780E-08 -7.420832E-09
      1110   2  8.592997E-05  9.000019E+00 -2.919792E-08  2.377521E-05 -3.294058E-09 -1.447319E-08
      1110   3  8.352835E-05  9.000019E+00  1.041135E-07  2.861250E-05  1.673969E-08  9.941141E-09
      1110   4  9.406840E-05  9.000017E+00 -3.171374E-08  2.024196E-05 -2.192541E-08 -2.935495E-10
      1110   5  9.279873E-05  9.000017E+00 -6.214420E-08  2.446354E-05  7.305761E-09 -5.905172E-09
      1110   6  9.148442E-05  9.000017E+00  1.896314E-08  2.951550E-05  3.653693E-08  1.994987E-08
      1110   7  1.002617E-04  9.000014E+00  5.313584E-08  2.067097E-05 -7.410898E-09  6.833723E-09
      1110   8  1.000845E-04  9.000015E+00 -1.726645E-08  2.510721E-05  3.101771E-08  2.662802E-09
      1110   9  9.983130E-05  9.000015E+00 -4.955304E-08  3.037383E-05  6.944633E-08  2.995862E-08
      1110  10  8.842015E-05  9.000019E+00  5.343361E-08  1.962723E-05 -3.132075E-15 -4.344889E-14
      1110  11  8.600382E-05  9.000019E+00 -2.609657E-08  2.362924E-05  5.488783E-15  6.893452E-16
      1110  12  8.357432E-05  9.000019E+00  7.933338E-08  2.846163E-05  1.078699E-14 -1.638351E-14
      1110  13  9.416156E-05  9.000017E+00 -4.407372E-09  2.009160E-05 -2.031966E-16 -3.091653E-14
      1110  14  9.286400E-05  9.000017E+00 -6.271931E-08  2.430828E-05  2.682859E-16 -6.818773E-15
      1110  15  9.152181E-05  9.000017E+00 -9.493434E-09  2.935533E-05  6.111875E-15  7.451885E-16
      1110  16  1.003462E-04  9.000014E+00  7.676571E-08  2.051132E-05 -3.114255E-15 -2.779089E-14
      1110  17  1.001412E-04  9.000015E+00 -2.151798E-08  2.494266E-05  1.949981E-15 -1.942737E-14
      1110  18  9.986011E-05  9.000015E+00 -8.168614E-08  3.020437E-05  1.438694E-15  3.284401E-15
      1110  19  8.831842E-05  9.000019E+00  2.245082E-08  1.976829E-05  2.332779E-08  7.420746E-09
      1110  20  8.592997E-05  9.000019E+00 -2.919794E-08  2.377521E-05  3.294064E-09  1.447316E-08
      1110  21  8.352835E-05  9.000019E+00  1.041135E-07  2.861250E-05 -1.673966E-08 -9.941160E-09
      1110  22  9.406840E-05  9.000017E+00 -3.171369E-08  2.024196E-05  2.192540E-08  2.934793E-10
      1110  23  9.279873E-05  9.000017E+00 -6.214422E-08  2.446354E-05 -7.305770E-09  5.905184E-09
      1110  24  9.148442E-05  9.000017E+00  1.896319E-08  2.951550E-05 -3.653692E-08 -1.994988E-08
      1110  25  1.002617E-04  9.000014E+00  5.313580E-08  2.067097E-05  7.410893E-09 -6.833779E-09
      1110  26  1.000845E-04  9.000015E+00 -1.726645E-08  2.510721E-05 -3.101772E-08 -2.662849E-09
      1110  27  9.983130E-05  9.000015E+00 -4.955307E-08  3.037383E-05 -6.944633E-08 -2.995861E-08
      1111   1  8.146714E-05  9.000019E+00  2.166618E-08  3.108791E-05  8.683520E-09 -1.953519E-08
      1111   2  7.719532E-05  9.000017E+00 -1.943831E-08  3.295805E-05  1.976564E-09 -9.412652E-08
      1111   3  7.252689E-05  9.000013E+00  2.697039E-07  3.575790E-05 -4.730370E-09 -5.805926E-08
      1111   4  8.991830E-05  9.000017E+00 -1.132056E-07  3.225027E-05 -9.117532E-09  8.154910E-10
      1111   5  8.708365E-05  9.000015E+00 -1.760533E-08  3.459924E-05 -4.046318E-08 -3.967654E-08
      1111   6  8.374172E-05  9.000012E+00  1.500384E-07  3.787792E-05 -7.180880E-08  3.048994E-08
      1111   7  9.965361E-05  9.000015E+00  1.057435E-07  3.344205E-05  1.161699E-09  2.116616E-08
      1111   8  9.819996E-05  9.000014E+00  2.070073E-07  3.626985E-05 -5.482265E-08  1.477337E-08
      1111   9  9.612837E-05  9.000012E+00  1.221114E-07  4.002736E-05 -1.108070E-07  1.190392E-07
      1111  10  8.172291E-05  9.000019E+00  7.803837E-08  3.086932E-05  1.145051E-14 -2.240760E-14
      1111  11  7.742628E-05  9.000017E+00  1.211494E-08  3.267948E-05  1.110998E-14 -7.297878E-15
      1111  12  7.273302E-05  9.000013E+00  2.764382E-07  3.541935E-05  8.209067E-15  1.525528E-15
      1111  13  9.006912E-05  9.000017E+00 -1.018155E-07  3.202341E-05  1.297104E-15 -3.588654E-15
      1111  14  8.720965E-05  9.000015E+00 -3.103407E-08  3.431240E-05 -4.696158E-15 -3.556351E-15
      1111  15  8.384290E-05  9.000012E+00  1.117907E-07  3.753111E-05  2.153071E-17  1.524126E-14
      1111  16  9.969947E-05  9.000015E+00  7.215168E-08  3.320691E-05 -6.514173E-15  2.413013E-15
      1111  17  9.822100E-05  9.000014E+00  1.485966E-07  3.597474E-05 -9.848379E-15 -1.367067E-14
      1111  18  9.612459E-05  9.000011E+00  3.888166E-08  3.967227E-05 -3.249558E-15  2.944578E-15
      1111  19  8.146714E-05  9.000019E+00  2.166620E-08  3.108791E-05 -8.683485E-09  1.953514E-08
      1111  20  7.719532E-05  9.000017E+00 -1.943827E-08  3.295805E-05 -1.976546E-09  9.412649E-08
      1111  21  7.252689E-05  9.000013E+00  2.697039E-07  3.575790E-05  4.730389E-09  5.805929E-08
      1111  22  8.991830E-05  9.000017E+00 -1.132056E-07  3.225027E-05  9.117546E-09 -8.155104E-10
      1111  23  8.708365E-05  9.000015E+00 -1.760532E-08  3.459924E-05  4.046317E-08  3.967656E-08
      1111  24  8.374172E-05  9.000012E+00  1.500384E-07  3.787792E-05  7.180881E-08 -3.048992E-08
      1111  25  9.965361E-05  9.000015E+00  1.057435E-07  3.344205E-05 -1.161711E-09 -2.116617E-08
      1111  26  9.819996E-05  9.000014E+00  2.070073E-07  3.626985E-05  5.482263E-08 -1.477340E-08
      1111  27  9.612837E-05  9.000012E+00  1.221114E-07  4.002736E-05  1.108070E-07 -1.190391E-07
      1112   1  6.830410E-05  9.000010E+00 -1.486363E-07  3.592804E-05  1.150214E-07 -2.040094E-08
      1112   2  6.287873E-05  9.000000E+00  1.890177E-07  3.211195E-05 -9.055912E-08  2.639004E-08
      1112   3  5.532875E-05  8.999983E+00  3.813991E-07  2.808898E-05 -2.961397E-07  1.117180E-07
      1112   4  8.025047E-05  9.000009E+00 -2.685342E-07  3.847509E-05  4.207127E-08  4.633471E-08
      1112   5  7.499808E-05  9.000001E+00 -1.562774E-07  3.500457E-05 -6.835152E-08 -1.593575E-08
      1112   6  6.758253E-05  8.999986E+00 -2.792130E-07  3.132716E-05 -1.787743E-07 -3.966930E-08
      1112   7  9.465511E-05  9.000010E+00  1.854947E-07  4.135180E-05  3.412206E-09  1.130703E-07
      1112   8  8.950710E-05  9.000003E+00 -8.767118E-08  3.822685E-05 -1.185277E-08 -5.826162E-08
      1112   9  8.215741E-05  8.999990E+00 -6.859487E-07  3.489500E-05 -2.711775E-08 -1.910566E-07
      1112  10  6.880028E-05  9.000010E+00 -5.495266E-08  3.557049E-05  3.729646E-15  4.388561E-15
      1112  11  6.317506E-05  8.999999E+00  8.285229E-08  3.181133E-05 -8.311350E-15 -1.846917E-15
      1112  12  5.542523E-05  8.999982E+00  7.538445E-08  2.784527E-05 -5.697176E-15 -4.498696E-14
      1112  13  8.084627E-05  9.000009E+00 -1.321627E-07  3.805093E-05  5.415105E-15  1.386681E-14
      1112  14  7.539402E-05  9.000001E+00 -2.197552E-07  3.463733E-05  4.602072E-17 -1.357998E-14
      1112  15  6.777862E-05  8.999985E+00 -5.425399E-07  3.101683E-05 -4.035259E-15 -4.198649E-14
      1112  16  9.535050E-05  9.000010E+00  3.645539E-07  4.086103E-05  8.852457E-15  1.517691E-15
      1112  17  9.000265E-05  9.000003E+00 -1.084611E-07  3.779299E-05  6.558732E-15 -3.143163E-14
      1112  18  8.245311E-05  8.999989E+00 -9.065879E-07  3.451806E-05  1.500687E-15 -4.583314E-14
      1112  19  6.830410E-05  9.000010E+00 -1.486363E-07  3.592804E-05 -1.150214E-07  2.040095E-08
      1112  20  6.287873E-05  9.000000E+00  1.890177E-07  3.211195E-05  9.055913E-08 -2.639009E-08
      1112  21  5.532875E-05  8.999983E+00  3.813990E-07  2.808898E-05  2.961397E-07 -1.117181E-07
      1112  22  8.025047E-05  9.000009E+00 -2.685341E-07  3.847509E-05 -4.207125E-08 -4.633466E-08
      1112  23  7.499808E-05  9.000001E+00 -1.562775E-07  3.500457E-05  6.835150E-08  1.593575E-08
      1112  24  6.758253E-05  8.999986E+00 -2.792130E-07  3.132716E-05  1.787743E-07  3.966919E-08
      1112  25  9.465511E-05  9.000010E+00  1.854947E-07  4.135180E-05 -3.412190E-09 -1.130703E-07
      1112  26  8.950710E-05  9.000003E+00 -8.767116E-08  3.822685E-05  1.185277E-08  5.826155E-08
      1112  27  8.215741E-05  8.999990E+00 -6.859488E-07  3.489500E-05  2.711773E-08  1.910565E-07
      1113   1  4.877304E-05  8.999969E+00 -8.551522E-07  2.281505E-05  3.708150E-07  9.577956E-08
      1113   2  4.970720E-05  8.999938E+00  6.748730E-07  1.127534E-05  1.190553E-07 -1.145133E-07
      1113   3  4.321900E-05  8.999886E+00 -1.524507E-06 -1.522329E-06 -1.327044E-07 -3.950110E-07
      1113   4  6.184073E-05  8.999974E+00 -1.037878E-06  2.596569E-05  3.401224E-07 -7.640029E-10
      1113   5  6.195105E-05  8.999945E+00  1.089257E-06  1.246876E-05  4.976322E-07  8.647467E-08
      1113   6  5.470921E-05  8.999895E+00 -3.492023E-07 -2.286115E-06  6.551421E-07  1.035084E-07
      1113   7  7.696755E-05  8.999979E+00 -1.216441E-06  2.953477E-05  3.991240E-07 -9.730757E-08
      1113   8  7.607464E-05  8.999952E+00  1.089231E-06  1.408063E-05  9.659034E-07  2.874626E-07
      1113   9  6.789978E-05  8.999904E+00 -6.879632E-09 -2.631460E-06  1.532683E-06  6.020279E-07
      1113  10  4.963286E-05  8.999968E+00 -8.451554E-07  2.282533E-05 -8.433270E-16 -3.589501E-14
      1113  11  5.069993E-05  8.999938E+00  8.177808E-07  1.161889E-05  3.639923E-15  9.438137E-15
      1113  12  4.434464E-05  8.999886E+00 -1.248688E-06 -8.454909E-07  4.072506E-15 -1.290439E-14
      1113  13  6.328379E-05  8.999973E+00 -7.779223E-07  2.602027E-05 -4.691223E-15 -3.557939E-14
      1113  14  6.352701E-05  8.999945E+00  1.482124E-06  1.285662E-05 -6.294713E-15  4.771025E-15
      1113  15  5.641809E-05  8.999895E+00  1.765757E-07 -1.564974E-06  4.088424E-15 -6.266289E-15
      1113  16  7.899384E-05  8.999979E+00 -7.065255E-07  2.963366E-05 -1.338114E-14 -2.817784E-14
      1113  17  7.823385E-05  8.999952E+00  1.732057E-06  1.451280E-05 -1.361870E-14 -7.217144E-15
      1113  18  7.019190E-05  8.999904E+00  7.688576E-07 -1.866015E-06  5.492690E-15 -2.288765E-14
      1113  19  4.877304E-05  8.999969E+00 -8.551521E-07  2.281505E-05 -3.708150E-07 -9.577965E-08
      1113  20  4.970720E-05  8.999938E+00  6.748730E-07  1.127534E-05 -1.190553E-07  1.145133E-07
      1113  21  4.321900E-05  8.999886E+00 -1.524507E-06 -1.522329E-06  1.327044E-07  3.950110E-07
      1113  22  6.184073E-05  8.999974E+00 -1.037878E-06  2.596569E-05 -3.401224E-07  7.639069E-10
      1113  23  6.195105E-05  8.999945E+00  1.089257E-06  1.246876E-05 -4.976323E-07 -8.647465E-08
      1113  24  5.470921E-05  8.999895E+00 -3.492024E-07 -2.286115E-06 -6.551421E-07 -1.035085E-07
      1113  25  7.696755E-05  8.999979E+00 -1.216441E-06  2.953477E-05 -3.991240E-07  9.730749E-08
      1113  26  7.607464E-05  8.999952E+00  1.089231E-06  1.408063E-05 -9.659034E-07 -2.874626E-07
      1113  27  6.789978E-05  8.999904E+00 -6.879687E-09 -2.631460E-06 -1.532683E-06 -6.020279E-07
      1114   1  5.276768E-05  8.999849E+00  1.235219E-06 -9.834812E-06 -1.759763E-07 -5.490651E-07
      1114   2  5.471657E-05  8.999776E+00 -9.385088E-07 -1.534053E-06  2.306414E-07 -8.928669E-08
      1114   3  6.216035E-05  8.999717E+00  2.027675E-06  1.382665E-05  6.372590E-07  1.398179E-06
      1114   4  6.414881E-05  8.999854E+00  2.282800E-06 -1.510523E-05 -8.117856E-07 -1.244064E-07
      1114   5  7.143931E-05  8.999769E+00 -3.137172E-07 -3.623871E-06 -3.066622E-06 -2.159814E-07
      1114   6  8.319703E-05  8.999696E+00 -1.682607E-07  1.491743E-05 -5.321458E-06  7.201311E-07
      1114   7  7.716026E-05  8.999860E+00  2.933707E-06 -2.303730E-05 -1.957953E-06  3.002522E-07
      1114   8  9.081309E-05  8.999764E+00  2.296072E-06 -8.375337E-06 -6.874243E-06 -3.426762E-07
      1114   9  1.079054E-04  8.999678E+00  2.002473E-06  1.334657E-05 -1.179053E-05  4.208284E-08
      1114  10  5.295743E-05  8.999849E+00  1.219844E-06 -9.409202E-06  4.457576E-15 -1.896598E-14
      1114  11  5.543435E-05  8.999777E+00 -4.258501E-07 -3.489917E-06 -7.847536E-15 -8.065806E-16
      1114  12  6.340616E-05  8.999719E+00  3.068366E-06  9.489314E-06 -3.046452E-14 -1.988243E-14
      1114  13  6.017098E-05  8.999852E+00  4.813200E-07 -1.450361E-05  6.820256E-17 -1.192171E-14
      1114  14  6.798952E-05  8.999768E+00 -1.587163E-06 -5.403724E-06 -5.848695E-15  1.356744E-15
      1114  15  8.027526E-05  8.999697E+00 -9.136738E-07  1.075611E-05 -1.717893E-14 -1.963555E-14
      1114  16  6.901485E-05  8.999856E+00 -6.538775E-07 -2.225966E-05  8.995946E-15 -2.326259E-14
      1114  17  8.319572E-05  8.999761E+00 -7.634788E-07 -9.979179E-06  3.163054E-15 -9.520601E-15
      1114  18  1.008161E-04  8.999677E+00 -5.290447E-07  9.361253E-06 -1.352506E-14 -2.668441E-14
      1114  19  5.276768E-05  8.999849E+00  1.235219E-06 -9.834812E-06  1.759763E-07  5.490651E-07
      1114  20  5.471657E-05  8.999776E+00 -9.385087E-07 -1.534053E-06 -2.306414E-07  8.928666E-08
      1114  21  6.216035E-05  8.999717E+00  2.027675E-06  1.382665E-05 -6.372591E-07 -1.398179E-06
      1114  22  6.414881E-05  8.999854E+00  2.282800E-06 -1.510523E-05  8.117856E-07  1.244064E-07
      1114  23  7.143931E-05  8.999769E+00 -3.137171E-07 -3.623871E-06  3.066622E-06  2.159815E-07
      1114  24  8.319703E-05  8.999696E+00 -1.682607E-07  1.491743E-05  5.321458E-06 -7.201311E-07
      1114  25  7.716026E-05  8.999860E+00  2.933707E-06 -2.303729E-05  1.957953E-06 -3.002523E-07
      1114  26  9.081309E-05  8.999764E+00  2.296072E-06 -8.375337E-06  6.874243E-06  3.426762E-07
      1114  27  1.079054E-04  8.999678E+00  2.002473E-06  1.334657E-05  1.179053E-05 -4.208288E-08
      1115   1  5.243369E-05  8.999687E+00  4.705056E-07  3.546383E-05  9.985664E-07  4.454507E-07
      1115   2  2.938262E-05  8.999645E+00 -3.514502E-07  3.040361E-05 -1.385549E-07 -1.440346E-06
      1115   3  6.865037E-06  8.999603E+00  1.621769E-06  1.731454E-05 -1.275676E-06  2.156580E-06
      1115   4  6.367928E-05  8.999666E+00 -3.564833E-06  4.602173E-05 -6.353026E-06 -3.868689E-07
      1115   5  4.025569E-05  8.999651E+00  2.744619E-06  4.317968E-05 -1.347043E-06 -2.251465E-06
      1115   6  1.188288E-05  8.999629E+00 -9.437731E-07  3.230877E-05  3.658939E-06  1.366662E-06
      1115   7  8.076833E-05  8.999649E+00 -2.651276E-06  6.127019E-05 -1.287987E-05 -1.219189E-06
      1115   8  5.532275E-05  8.999658E+00  6.940781E-06  6.064630E-05 -1.730788E-06 -3.062583E-06
      1115   9  1.944521E-05  8.999656E+00 -6.258027E-06  5.199356E-05  9.418299E-06  5.767447E-07
      1115  10  5.256185E-05  8.999688E+00  8.154037E-07  3.028498E-05 -2.708583E-14 -2.423203E-14
      1115  11  2.767895E-05  8.999642E+00 -1.838374E-06  2.777607E-05 -2.353299E-15  5.995512E-15
      1115  12  3.329550E-06  8.999595E+00 -1.696976E-06  1.723830E-05 -1.689362E-15  3.757270E-14
      1115  13  6.827222E-05  8.999669E+00 -1.306454E-06  4.023228E-05 -9.772346E-15 -2.816639E-14
      1115  14  4.301682E-05  8.999650E+00  3.171176E-06  3.994152E-05 -4.477100E-15 -2.639604E-17
      1115  15  1.281218E-05  8.999624E+00 -2.349038E-06  3.162193E-05 -1.612044E-14  4.424272E-14
      1115  16  8.982606E-05  8.999654E+00  1.520583E-06  5.487013E-05 -7.910953E-15 -3.769058E-14
      1115  17  6.254866E-05  8.999659E+00  9.280818E-06  5.679754E-05 -1.017024E-14 -1.330629E-14
      1115  18  2.483930E-05  8.999652E+00 -5.749812E-06  5.069611E-05 -1.937017E-14  3.298512E-14
      1115  19  5.243369E-05  8.999687E+00  4.705057E-07  3.546383E-05 -9.985664E-07 -4.454507E-07
      1115  20  2.938262E-05  8.999645E+00 -3.514502E-07  3.040361E-05  1.385549E-07  1.440346E-06
      1115  21  6.865037E-06  8.999603E+00  1.621769E-06  1.731454E-05  1.275676E-06 -2.156579E-06
      1115  22  6.367928E-05  8.999666E+00 -3.564832E-06  4.602173E-05  6.353026E-06  3.868689E-07
      1115  23  4.025569E-05  8.999651E+00  2.744619E-06  4.317968E-05  1.347043E-06  2.251465E-06
      1115  24  1.188288E-05  8.999629E+00 -9.437731E-07  3.230877E-05 -3.658940E-06 -1.366662E-06
      1115  25  8.076833E-05  8.999649E+00 -2.651276E-06  6.127019E-05  1.287987E-05  1.219188E-06
      1115  26  5.532275E-05  8.999658E+00  6.940781E-06  6.064630E-05  1.730788E-06  3.062583E-06
      1115  27  1.944521E-05  8.999656E+00 -6.258027E-06  5.199356E-05 -9.418299E-06 -5.767446E-07
      1201   1  1.557636E-05  8.999685E+00 -7.397295E-06 -6.148856E-05 -6.359950E-06 -3.296374E-07
      1201   2  5.802071E-05  8.999640E+00  9.316697E-07 -8.695180E-05 -2.596326E-06 -3.323787E-06
      1201   3  1.101177E-04  8.999628E+00  9.287581E-06 -6.159687E-05  1.167299E-06 -1.884521E-05
      1201   4 -1.595083E-05  8.999764E+00  2.902552E-06 -7.089984E-05  1.523551E-05  4.838211E-06
      1201   5  7.489627E-05  8.999668E+00  4.123650E-06 -1.055104E-04 -1.252405E-05  2.015547E-06
      1201   6  1.879233E-04  8.999616E+00  3.460200E-05 -8.930281E-05 -4.028361E-05 -1.333439E-05
      1201   7 -6.563753E-05  8.999840E+00  2.006782E-05 -9.264771E-05  4.425739E-05  1.000606E-05
      1201   8  5.875946E-05  8.999677E+00 -2.047561E-05 -1.364056E-04 -1.502535E-05  7.354880E-06
      1201   9  2.178636E-04  8.999571E+00 -2.531493E-06 -1.293453E-04 -7.430809E-05 -7.823571E-06
      1201  10  3.024383E-05  8.999719E+00  7.154672E-06 -4.861822E-05  1.269832E-14 -1.789615E-15
      1201  11  5.617163E-05  8.999636E+00 -1.032905E-06 -9.302613E-05 -1.574888E-15  1.301781E-15
      1201  12  9.175206E-05  8.999584E+00 -9.193534E-06 -8.661586E-05 -1.068046E-14  1.110755E-15
      1201  13 -3.443652E-05  8.999784E+00  3.246023E-06 -6.353502E-05  1.748503E-14 -1.730464E-14
      1201  14  3.989404E-05  8.999649E+00 -1.204942E-05 -1.170903E-04  9.231391E-15  9.506771E-15
      1201  15  1.364045E-04  8.999558E+00  1.912385E-06 -1.198273E-04 -8.107285E-15 -1.849914E-15
      1201  16 -1.172764E-04  8.999845E+00  6.202793E-06 -9.078840E-05 -9.500175E-15 -3.721840E-14
      1201  17 -9.395925E-06  8.999644E+00 -5.085718E-05 -1.534910E-04 -6.143455E-15 -6.782335E-15
      1201  18  1.331917E-04  8.999499E+00 -4.942960E-05 -1.653753E-04 -6.417117E-15  9.430966E-15
      1201  19  1.557636E-05  8.999685E+00 -7.397295E-06 -6.148856E-05  6.359950E-06  3.296374E-07
      1201  20  5.802071E-05  8.999640E+00  9.316697E-07 -8.695180E-05  2.596326E-06  3.323787E-06
      1201  21  1.101177E-04  8.999628E+00  9.287581E-06 -6.159687E-05 -1.167299E-06  1.884521E-05
      1201  22 -1.595083E-05  8.999764E+00  2.902552E-06 -7.089984E-05 -1.523551E-05 -4.838211E-06
      1201  23  7.489627E-05  8.999668E+00  4.123651E-06 -1.055104E-04  1.252405E-05 -2.015547E-06
      1201  24  1.879233E-04  8.999616E+00  3.460200E-05 -8.930281E-05  4.028361E-05  1.333439E-05
      1201  25 -6.563753E-05  8.999840E+00  2.006782E-05 -9.264771E-05 -4.425739E-05 -1.000606E-05
      1201  26  5.875946E-05  8.999677E+00 -2.047561E-05 -1.364056E-04  1.502535E-05 -7.354880E-06
      1201  27  2.178636E-04  8.999571E+00 -2.531493E-06 -1.293453E-04  7.430809E-05  7.823571E-06
      1202   1  1.275399E-04  8.999677E+00  1.672661E-05  1.464100E-05  7.007962E-06 -1.805867E-05
      1202   2  1.159307E-04  8.999802E+00  2.003764E-05  2.683113E-05  4.478300E-06 -5.086944E-07
      1202   3  7.887379E-05  8.999865E+00 -3.274348E-07  2.731542E-05  1.948638E-06  3.469296E-06
      1202   4  1.344541E-04  8.999624E+00  7.195757E-06  2.486894E-05 -2.014980E-05 -1.352646E-05
      1202   5  1.103180E-04  8.999773E+00 -4.924836E-06  3.128961E-05 -1.181638E-05  4.890602E-07
      1202   6  7.430624E-05  8.999874E+00 -9.053565E-06  2.600444E-05 -3.482960E-06  9.325934E-07
      1202   7  1.240916E-04  8.999551E+00 -5.316728E-05  4.140231E-05 -5.338657E-05 -8.994249E-06
      1202   8  9.958673E-05  8.999737E+00 -5.235078E-05  4.205352E-05 -3.419007E-05  1.486815E-06
      1202   9  7.677810E-05  8.999888E+00 -1.187444E-05  3.099889E-05 -1.499357E-05 -1.604109E-06
      1202  10  1.045408E-04  8.999628E+00 -4.873502E-06 -1.218891E-05 -1.774100E-14 -4.885468E-16
      1202  11  1.026331E-04  8.999775E+00  8.139042E-06  1.323802E-05  4.816854E-15 -1.441834E-14
      1202  12  7.527772E-05  8.999861E+00 -2.524524E-06  2.695912E-05  1.696701E-14 -2.773640E-14
      1202  13  1.346194E-04  8.999585E+00 -4.476750E-06  1.272869E-06 -1.182814E-14  6.597697E-15
      1202  14  1.201848E-04  8.999757E+00 -6.895831E-06  2.093034E-05 -3.838415E-15  1.116775E-15
      1202  15  9.387458E-05  8.999881E+00 -1.323050E-06  2.888198E-05  9.149273E-15 -3.679424E-14
      1202  16  1.474213E-04  8.999522E+00 -5.491218E-05  2.104007E-05 -1.672319E-14  1.702223E-14
      1202  17  1.326180E-04  8.999730E+00 -4.439417E-05  3.492808E-05 -2.029195E-14 -4.584443E-15
      1202  18  1.195109E-04  8.999904E+00  5.783678E-06  3.711027E-05 -3.739141E-15 -6.805446E-14
      1202  19  1.275399E-04  8.999677E+00  1.672661E-05  1.464100E-05 -7.007962E-06  1.805867E-05
      1202  20  1.159307E-04  8.999802E+00  2.003764E-05  2.683113E-05 -4.478300E-06  5.086944E-07
      1202  21  7.887379E-05  8.999865E+00 -3.274347E-07  2.731542E-05 -1.948638E-06 -3.469296E-06
      1202  22  1.344541E-04  8.999624E+00  7.195757E-06  2.486894E-05  2.014980E-05  1.352646E-05
      1202  23  1.103180E-04  8.999773E+00 -4.924836E-06  3.128961E-05  1.181638E-05 -4.890602E-07
      1202  24  7.430624E-05  8.999874E+00 -9.053565E-06  2.600444E-05  3.482960E-06 -9.325935E-07
      1202  25  1.240916E-04  8.999551E+00 -5.316728E-05  4.140231E-05  5.338657E-05  8.994249E-06
      1202  26  9.958673E-05  8.999737E+00 -5.235078E-05  4.205352E-05  3.419007E-05 -1.486815E-06
      1202  27  7.677810E-05  8.999888E+00 -1.187444E-05  3.099889E-05  1.499357E-05  1.604109E-06
      1203   1  6.800234E-05  8.999891E+00 -8.966345E-06  9.869968E-08 -7.092833E-07  1.968591E-06
      1203   2  8.101449E-05  8.999947E+00 -3.575803E-06 -1.737305E-05 -5.942739E-07  1.102852E-06
      1203   3  8.874226E-05  8.999986E+00  7.330642E-07 -3.311545E-05 -4.792645E-07 -5.239551E-07
      1203   4  9.625998E-05  8.999923E+00  3.781144E-06 -3.400137E-06  3.971264E-06 -1.038734E-06
      1203   5  1.041897E-04  8.999963E+00  9.033700E-07 -1.982383E-05  2.124500E-06  1.269505E-08
      1203   6  1.075961E-04  8.999987E+00 -1.280254E-06 -3.451819E-05  2.777357E-07  3.030557E-07
      1203   7  1.355018E-04  8.999962E+00  2.929115E-05 -9.237761E-06  1.007010E-05 -4.046059E-06
      1203   8  1.355125E-04  8.999983E+00  1.152636E-05 -2.461341E-05  6.261566E-06 -1.077462E-06
      1203   9  1.317610E-04  8.999989E+00 -3.768455E-06 -3.825971E-05  2.453028E-06  1.130067E-06
      1203  10  7.159605E-05  8.999895E+00 -6.640902E-06  2.854307E-06  1.690844E-14 -3.125669E-14
      1203  11  8.357385E-05  8.999949E+00 -2.284704E-06 -1.580337E-05  1.028656E-14 -2.375053E-14
      1203  12  9.026728E-05  8.999986E+00  9.898191E-07 -3.273171E-05  1.163303E-14  9.109716E-16
      1203  13  9.777831E-05  8.999926E+00  5.217140E-06 -9.893118E-07  1.384182E-14 -4.310678E-14
      1203  14  1.046737E-04  8.999964E+00  1.305022E-06 -1.859894E-05  9.257068E-15  8.964461E-16
      1203  15  1.070458E-04  8.999985E+00 -1.912946E-06 -3.447922E-05  6.138889E-15 -7.242191E-15
      1203  16  1.349448E-04  8.999964E+00  2.983770E-05 -7.171716E-06  5.894710E-15 -6.220599E-14
      1203  17  1.339211E-04  8.999983E+00  1.103856E-05 -2.373329E-05  1.815451E-15 -7.063029E-17
      1203  18  1.291353E-04  8.999986E+00 -5.290594E-06 -3.856552E-05  4.271271E-15 -2.756669E-15
      1203  19  6.800234E-05  8.999891E+00 -8.966345E-06  9.869966E-08  7.092833E-07 -1.968591E-06
      1203  20  8.101449E-05  8.999947E+00 -3.575803E-06 -1.737305E-05  5.942739E-07 -1.102852E-06
      1203  21  8.874226E-05  8.999986E+00  7.330641E-07 -3.311545E-05  4.792646E-07  5.239552E-07
      1203  22  9.625998E-05  8.999923E+00  3.781144E-06 -3.400137E-06 -3.971264E-06  1.038734E-06
      1203  23  1.041897E-04  8.999963E+00  9.033701E-07 -1.982383E-05 -2.124500E-06 -1.269504E-08
      1203  24  1.075961E-04  8.999987E+00 -1.280254E-06 -3.451819E-05 -2.777357E-07 -3.030557E-07
      1203  25  1.355018E-04  8.999962E+00  2.929115E-05 -9.237761E-06 -1.007010E-05  4.046059E-06
      1203  26  1.355125E-04  8.999983E+00  1.152636E-05 -2.461341E-05 -6.261566E-06  1.077462E-06
      1203  27  1.317610E-04  8.999989E+00 -3.768455E-06 -3.825971E-05 -2.453028E-06 -1.130067E-06
      1204   1  9.610587E-05  8.999999E+00  2.982133E-06 -3.813046E-05  1.640011E-08 -1.026926E-06
      1204   2  9.956265E-05  9.000005E+00  6.503691E-07 -3.902316E-05  2.352425E-08 -5.459203E-07
      1204   3  1.027408E-04  9.000009E+00 -1.532874E-07 -4.229598E-05  3.064840E-08  7.666422E-08
      1204   4  1.160158E-04  8.999997E+00  1.009507E-06 -4.065659E-05 -1.659128E-07  1.616117E-07
      1204   5  1.169439E-04  9.000004E+00 -2.908758E-07 -4.028987E-05 -1.770062E-07 -3.216423E-08
      1204   6  1.174519E-04  9.000008E+00 -3.935002E-07 -4.230328E-05 -1.880996E-07 -8.436204E-08
      1204   7  1.371008E-04  8.999994E+00 -4.234509E-06 -4.293219E-05 -8.428409E-07  1.350150E-06
      1204   8  1.364895E-04  9.000003E+00 -2.195305E-06 -4.130606E-05 -8.721519E-07  4.815918E-07
      1204   9  1.353164E-04  9.000009E+00  7.113072E-07 -4.206005E-05 -9.014629E-07 -2.453882E-07
      1204  10  9.611196E-05  8.999997E+00  2.474748E-06 -3.758203E-05  3.539933E-15  5.407882E-15
      1204  11  9.992249E-05  9.000005E+00  4.967379E-07 -3.854149E-05 -3.994461E-15 -2.587374E-15
      1204  12  1.034544E-04  9.000009E+00  4.683583E-08 -4.188106E-05 -2.372356E-15 -1.622580E-15
      1204  13  1.159051E-04  8.999995E+00  4.520552E-07 -3.999024E-05  2.195899E-15 -8.251765E-15
      1204  14  1.171869E-04  9.000003E+00 -4.945733E-07 -3.969028E-05 -3.183764E-15  2.133473E-15
      1204  15  1.180486E-04  9.000008E+00 -2.434432E-07 -4.177044E-05 -3.092154E-15 -2.476685E-14
      1204  16  1.368733E-04  8.999992E+00 -4.842027E-06 -4.214793E-05  1.547586E-15 -2.125831E-15
      1204  17  1.366157E-04  9.000002E+00 -2.449069E-06 -4.058855E-05 -1.151184E-15  1.009741E-14
      1204  18  1.357963E-04  9.000009E+00  8.112979E-07 -4.140930E-05 -5.927314E-15 -2.371723E-14
      1204  19  9.610587E-05  8.999999E+00  2.982133E-06 -3.813046E-05 -1.640010E-08  1.026927E-06
      1204  20  9.956265E-05  9.000005E+00  6.503691E-07 -3.902316E-05 -2.352426E-08  5.459203E-07
      1204  21  1.027408E-04  9.000009E+00 -1.532874E-07 -4.229598E-05 -3.064841E-08 -7.666418E-08
      1204  22  1.160158E-04  8.999997E+00  1.009507E-06 -4.065659E-05  1.659128E-07 -1.616118E-07
      1204  23  1.169439E-04  9.000004E+00 -2.908758E-07 -4.028987E-05  1.770062E-07  3.216428E-08
      1204  24  1.174519E-04  9.000008E+00 -3.935002E-07 -4.230328E-05  1.880996E-07  8.436199E-08
      1204  25  1.371008E-04  8.999994E+00 -4.234509E-06 -4.293219E-05  8.428409E-07 -1.350150E-06
      1204  26  1.364895E-04  9.000003E+00 -2.195305E-06 -4.130606E-05  8.721519E-07 -4.815917E-07
      1204  27  1.353164E-04  9.000009E+00  7.113073E-07 -4.206005E-05  9.014629E-07  2.453882E-07
      1205   1  1.037005E-04  9.000010E+00 -2.437586E-07 -4.095119E-05  6.992901E-08  2.416460E-07
      1205   2  1.045824E-04  9.000012E+00 -2.476660E-07 -3.661167E-05  3.068856E-08  1.053168E-07
      1205   3  1.054459E-04  9.000014E+00  1.123371E-07 -3.376286E-05 -8.551908E-09 -1.445928E-08
      1205   4  1.183468E-04  9.000010E+00  1.921590E-07 -4.044916E-05 -3.989735E-08 -6.322872E-08
      1205   5  1.168711E-04  9.000011E+00 -9.514897E-08 -3.582673E-05  3.041096E-09 -1.910993E-08
      1205   6  1.153604E-04  9.000011E+00 -5.717037E-08 -3.269500E-05  4.597956E-08  4.156192E-08
      1205   7  1.339044E-04  9.000010E+00  1.471938E-06 -4.000935E-05 -6.990477E-08 -3.681034E-07
      1205   8  1.299114E-04  9.000010E+00  5.287410E-07 -3.510400E-05  5.521259E-08 -1.435367E-07
      1205   9  1.258668E-04  9.000009E+00 -1.277933E-07 -3.168935E-05  1.803300E-07  9.758317E-08
      1205  10  1.037620E-04  9.000010E+00 -2.603940E-07 -4.072338E-05  5.340838E-15 -3.963697E-16
      1205  11  1.046673E-04  9.000012E+00 -2.408901E-07 -3.632844E-05  9.812185E-15 -2.016637E-15
      1205  12  1.055542E-04  9.000014E+00  1.425244E-07 -3.342420E-05  1.514655E-14 -2.356453E-14
      1205  13  1.185053E-04  9.000010E+00  2.170937E-07 -4.021355E-05  1.679121E-15 -2.039591E-14
      1205  14  1.170530E-04  9.000011E+00 -4.680292E-08 -3.553570E-05  2.191000E-15  5.221496E-15
      1205  15  1.155657E-04  9.000011E+00  1.458702E-08 -3.234854E-05  6.181031E-15 -2.558142E-14
      1205  16  1.341599E-04  9.000010E+00  1.538443E-06 -3.976594E-05 -8.067258E-15 -2.462640E-14
      1205  17  1.301903E-04  9.000010E+00  6.186572E-07 -3.480516E-05 -4.492879E-15 -2.770337E-15
      1205  18  1.261691E-04  9.000009E+00 -1.446583E-08 -3.133509E-05  5.381009E-15 -3.843086E-14
      1205  19  1.037005E-04  9.000010E+00 -2.437586E-07 -4.095119E-05 -6.992900E-08 -2.416460E-07
      1205  20  1.045824E-04  9.000012E+00 -2.476660E-07 -3.661167E-05 -3.068854E-08 -1.053168E-07
      1205  21  1.054459E-04  9.000014E+00  1.123371E-07 -3.376286E-05  8.551933E-09  1.445925E-08
      1205  22  1.183468E-04  9.000010E+00  1.921590E-07 -4.044916E-05  3.989735E-08  6.322869E-08
      1205  23  1.168711E-04  9.000011E+00 -9.514895E-08 -3.582673E-05 -3.041095E-09  1.910994E-08
      1205  24  1.153604E-04  9.000011E+00 -5.717038E-08 -3.269500E-05 -4.597954E-08 -4.156198E-08
      1205  25  1.339044E-04  9.000010E+00  1.471938E-06 -4.000935E-05  6.990476E-08  3.681034E-07
      1205  26  1.299114E-04  9.000010E+00  5.287410E-07 -3.510400E-05 -5.521261E-08  1.435367E-07
      1205  27  1.258668E-04  9.000009E+00 -1.277933E-07 -3.168935E-05 -1.803300E-07 -9.758320E-08
      1206   1  1.051505E-04  9.000014E+00  1.049408E-07 -3.061209E-05 -4.551960E-08 -5.409604E-08
      1206   2  1.045000E-04  9.000013E+00  2.868737E-08 -2.498653E-05 -2.369859E-08 -4.940012E-08
      1206   3  1.037662E-04  9.000013E+00 -4.803690E-08 -2.057620E-05 -1.877589E-09  4.585298E-09
      1206   4  1.141898E-04  9.000011E+00 -4.685771E-09 -2.953253E-05  5.551024E-08  3.802733E-08
      1206   5  1.120750E-04  9.000011E+00  5.044105E-08 -2.400954E-05  1.106194E-08 -1.365994E-08
      1206   6  1.098277E-04  9.000010E+00 -9.911687E-09 -1.970179E-05 -3.338636E-08 -1.605779E-08
      1206   7  1.230271E-04  9.000008E+00 -4.054114E-07 -2.832727E-05  1.215789E-07  1.301507E-07
      1206   8  1.195180E-04  9.000008E+00 -5.575211E-08 -2.290686E-05  1.086130E-08  2.208018E-08
      1206   9  1.158270E-04  9.000008E+00  6.341884E-08 -1.870169E-05 -9.985630E-08 -3.670083E-08
      1206  10  1.052027E-04  9.000014E+00  1.175381E-07 -3.032444E-05  9.355181E-15 -3.312809E-14
      1206  11  1.045675E-04  9.000013E+00  5.651615E-08 -2.476707E-05  2.622353E-15 -2.904258E-14
      1206  12  1.038489E-04  9.000013E+00 -4.976584E-09 -2.042493E-05 -7.432197E-16 -8.692370E-15
      1206  13  1.141227E-04  9.000011E+00 -4.322771E-08 -2.923980E-05  4.024096E-15 -3.601918E-14
      1206  14  1.120232E-04  9.000011E+00  2.713068E-08 -2.378500E-05  2.013317E-15 -8.597455E-15
      1206  15  1.097911E-04  9.000010E+00 -1.799055E-08 -1.954544E-05  4.784610E-15 -1.755577E-14
      1206  16  1.228407E-04  9.000008E+00 -4.950925E-07 -2.802947E-05  7.327077E-15 -3.964373E-14
      1206  17  1.193469E-04  9.000008E+00 -1.302016E-07 -2.267725E-05  2.470287E-15 -7.398776E-15
      1206  18  1.156711E-04  9.000008E+00  4.200825E-09 -1.854026E-05  5.075306E-15 -1.829020E-14
      1206  19  1.051505E-04  9.000014E+00  1.049408E-07 -3.061209E-05  4.551962E-08  5.409601E-08
      1206  20  1.045000E-04  9.000013E+00  2.868744E-08 -2.498653E-05  2.369861E-08  4.940008E-08
      1206  21  1.037662E-04  9.000013E+00 -4.803691E-08 -2.057620E-05  1.877588E-09 -4.585279E-09
      1206  22  1.141898E-04  9.000011E+00 -4.685814E-09 -2.953253E-05 -5.551023E-08 -3.802737E-08
      1206  23  1.120750E-04  9.000011E+00  5.044106E-08 -2.400954E-05 -1.106193E-08  1.365995E-08
      1206  24  1.098277E-04  9.000010E+00 -9.911714E-09 -1.970179E-05  3.338636E-08  1.605775E-08
      1206  25  1.230271E-04  9.000008E+00 -4.054115E-07 -2.832727E-05 -1.215789E-07 -1.301508E-07
      1206  26  1.195180E-04  9.000008E+00 -5.575215E-08 -2.290686E-05 -1.086130E-08 -2.208020E-08
      1206  27  1.158270E-04  9.000008E+00  6.341879E-08 -1.870169E-05  9.985631E-08  3.670081E-08
      1207   1  1.032816E-04  9.000012E+00 -8.374163E-08 -1.744717E-05  2.198827E-08  2.657366E-08
      1207   2  1.027807E-04  9.000012E+00 -1.648870E-08 -1.228975E-05  3.862768E-09  1.764710E-08
      1207   3  1.022301E-04  9.000011E+00 -4.579056E-08 -7.686119E-06 -1.426272E-08  1.075349E-08
      1207   4  1.088584E-04  9.000010E+00  6.805138E-09 -1.661554E-05  1.325362E-08 -7.159066E-09
      1207   5  1.076323E-04  9.000010E+00  5.034470E-08 -1.168893E-05 -5.859818E-09 -4.684847E-09
      1207   6  1.063546E-04  9.000009E+00 -7.414105E-09 -7.316095E-06 -2.497323E-08 -1.776889E-10
      1207   7  1.140908E-04  9.000008E+00  4.708507E-08 -1.573950E-05  7.479505E-09 -4.089175E-08
      1207   8  1.121337E-04  9.000007E+00  5.309532E-08 -1.104369E-05 -1.262183E-08 -2.701680E-08
      1207   9  1.101229E-04  9.000007E+00 -4.693640E-08 -6.901656E-06 -3.272320E-08 -1.110881E-08
      1207  10  1.032542E-04  9.000012E+00 -8.430161E-08 -1.737252E-05  9.731604E-16 -6.871098E-15
      1207  11  1.027595E-04  9.000012E+00 -1.088407E-08 -1.221661E-05  1.048652E-15 -1.437765E-14
      1207  12  1.022151E-04  9.000011E+00 -3.402131E-08 -7.614482E-06  7.494784E-15 -1.195697E-14
      1207  13  1.088284E-04  9.000010E+00  5.117683E-09 -1.653884E-05  7.038651E-15 -1.790674E-14
      1207  14  1.076085E-04  9.000010E+00  5.482188E-08 -1.161373E-05  8.965613E-15 -3.627171E-15
      1207  15  1.063370E-04  9.000009E+00  3.227694E-09 -7.242403E-06  9.161703E-15 -1.346727E-14
      1207  16  1.140582E-04  9.000008E+00  4.427016E-08 -1.566075E-05  8.840286E-15 -2.071683E-14
      1207  17  1.121072E-04  9.000007E+00  5.644507E-08 -1.096644E-05  7.273479E-15  1.361361E-15
      1207  18  1.101026E-04  9.000007E+00 -3.742207E-08 -6.825909E-06  7.291453E-15  6.340281E-15
      1207  19  1.032816E-04  9.000012E+00 -8.374172E-08 -1.744717E-05 -2.198828E-08 -2.657365E-08
      1207  20  1.027807E-04  9.000012E+00 -1.648873E-08 -1.228975E-05 -3.862773E-09 -1.764711E-08
      1207  21  1.022301E-04  9.000011E+00 -4.579056E-08 -7.686119E-06  1.426274E-08 -1.075349E-08
      1207  22  1.088584E-04  9.000010E+00  6.805092E-09 -1.661554E-05 -1.325360E-08  7.159037E-09
      1207  23  1.076323E-04  9.000010E+00  5.034468E-08 -1.168893E-05  5.859823E-09  4.684851E-09
      1207  24  1.063546E-04  9.000009E+00 -7.414102E-09 -7.316095E-06  2.497326E-08  1.776576E-10
      1207  25  1.140908E-04  9.000008E+00  4.708506E-08 -1.573950E-05 -7.479487E-09  4.089174E-08
      1207  26  1.121337E-04  9.000007E+00  5.309530E-08 -1.104369E-05  1.262186E-08  2.701679E-08
      1207  27  1.101229E-04  9.000007E+00 -4.693633E-08 -6.901656E-06  3.272321E-08  1.110884E-08
      1208   1  1.020307E-04  9.000011E+00 -5.298794E-08 -4.744357E-06  8.970129E-09  6.956581E-09
      1208   2  1.020553E-04  9.000011E+00  5.954285E-09 -4.660208E-14  1.991601E-14  3.697364E-09
      1208   3  1.020307E-04  9.000011E+00 -5.298804E-08  4.744357E-06 -8.970099E-09  6.956579E-09
      1208   4  1.059867E-04  9.000009E+00 -9.926584E-10 -4.483395E-06  3.866903E-08 -6.570433E-10
      1208   5  1.060146E-04  9.000009E+00  6.555436E-08 -3.998464E-14  6.227535E-15 -3.916205E-09
      1208   6  1.059867E-04  9.000009E+00 -9.927699E-10  4.483395E-06 -3.866900E-08 -6.569871E-10
      1208   7  1.095222E-04  9.000007E+00 -5.775117E-08 -4.222434E-06  6.836792E-08 -8.270583E-09
      1208   8  1.095533E-04  9.000007E+00  1.640064E-08 -4.342062E-14 -8.300849E-15 -1.152980E-08
      1208   9  1.095222E-04  9.000007E+00 -5.775130E-08  4.222434E-06 -6.836792E-08 -8.270512E-09
      1208  10  1.020188E-04  9.000011E+00 -3.887766E-08 -4.719638E-06  5.781158E-15 -7.527921E-15
      1208  11  1.020434E-04  9.000011E+00  2.006463E-08 -5.823352E-14  4.264632E-15 -1.126426E-16
      1208  12  1.020188E-04  9.000011E+00 -3.887760E-08  4.719638E-06 -1.025546E-15 -4.658611E-15
      1208  13  1.059315E-04  9.000009E+00 -5.421253E-09 -4.458677E-06  3.396562E-15 -9.604559E-15
      1208  14  1.059594E-04  9.000009E+00  6.112580E-08 -3.522517E-14  1.147832E-17  5.343872E-15
      1208  15  1.059315E-04  9.000009E+00 -5.421278E-09  4.458677E-06  1.147118E-17 -1.421410E-14
      1208  16  1.094237E-04  9.000007E+00 -8.071870E-08 -4.197715E-06 -6.199794E-16  1.201899E-14
      1208  17  1.094548E-04  9.000007E+00 -6.566775E-09 -3.288361E-14 -3.230934E-15  1.135048E-14
      1208  18  1.094237E-04  9.000007E+00 -8.071874E-08  4.197715E-06  1.495910E-15 -1.115133E-14
      1208  19  1.020307E-04  9.000011E+00 -5.298801E-08 -4.744357E-06 -8.970122E-09 -6.956564E-09
      1208  20  1.020553E-04  9.000011E+00  5.954256E-09 -5.573925E-14 -1.067058E-14 -3.697376E-09
      1208  21  1.020307E-04  9.000011E+00 -5.298803E-08  4.744357E-06  8.970097E-09 -6.956558E-09
      1208  22  1.059867E-04  9.000009E+00 -9.926691E-10 -4.483395E-06 -3.866902E-08  6.570210E-10
      1208  23  1.060146E-04  9.000009E+00  6.555437E-08 -4.963084E-14 -9.972479E-15  3.916206E-09
      1208  24  1.059867E-04  9.000009E+00 -9.927548E-10  4.483395E-06  3.866900E-08  6.569677E-10
      1208  25  1.095222E-04  9.000007E+00 -5.775111E-08 -4.222434E-06 -6.836792E-08  8.270613E-09
      1208  26  1.095533E-04  9.000007E+00  1.640067E-08 -7.083211E-14 -5.405717E-15  1.152981E-08
      1208  27  1.095222E-04  9.000007E+00 -5.775126E-08  4.222434E-06  6.836792E-08  8.270508E-09
      1209   1  1.022301E-04  9.000011E+00 -4.579059E-08  7.686119E-06  1.426273E-08  1.075349E-08
      1209   2  1.027807E-04  9.000012E+00 -1.648872E-08  1.228975E-05 -3.862776E-09  1.764706E-08
      1209   3  1.032816E-04  9.000012E+00 -8.374167E-08  1.744717E-05 -2.198830E-08  2.657359E-08
      1209   4  1.063546E-04  9.000009E+00 -7.414215E-09  7.316095E-06  2.497324E-08 -1.776085E-10
      1209   5  1.076323E-04  9.000010E+00  5.034466E-08  1.168893E-05  5.859813E-09 -4.684849E-09
      1209   6  1.088584E-04  9.000010E+00  6.805131E-09  1.661554E-05 -1.325363E-08 -7.159102E-09
      1209   7  1.101229E-04  9.000007E+00 -4.693653E-08  6.901656E-06  3.272320E-08 -1.110870E-08
      1209   8  1.121337E-04  9.000007E+00  5.309527E-08  1.104369E-05  1.262185E-08 -2.701677E-08
      1209   9  1.140908E-04  9.000008E+00  4.708506E-08  1.573950E-05 -7.479507E-09 -4.089177E-08
      1209  10  1.022151E-04  9.000011E+00 -3.402127E-08  7.614482E-06  1.089144E-16 -1.577849E-14
      1209  11  1.027595E-04  9.000012E+00 -1.088402E-08  1.221661E-05  6.153049E-15 -2.756819E-14
      1209  12  1.032542E-04  9.000012E+00 -8.430158E-08  1.737252E-05  5.438590E-16 -2.507841E-14
      1209  13  1.063370E-04  9.000009E+00  3.227660E-09  7.242403E-06  5.849575E-15 -1.948404E-14
      1209  14  1.076085E-04  9.000010E+00  5.482189E-08  1.161373E-05  1.105384E-14 -1.244002E-14
      1209  15  1.088284E-04  9.000010E+00  5.117714E-09  1.653884E-05  5.473180E-15 -2.055911E-14
      1209  16  1.101026E-04  9.000007E+00 -3.742210E-08  6.825909E-06  1.173564E-14 -1.985077E-14
      1209  17  1.121072E-04  9.000007E+00  5.644508E-08  1.096644E-05  1.337060E-14 -1.671591E-14
      1209  18  1.140582E-04  9.000008E+00  4.427016E-08  1.566075E-05  2.484694E-15 -1.540930E-14
      1209  19  1.022301E-04  9.000011E+00 -4.579059E-08  7.686119E-06 -1.426272E-08 -1.075350E-08
      1209  20  1.027807E-04  9.000012E+00 -1.648867E-08  1.228975E-05  3.862781E-09 -1.764710E-08
      1209  21  1.032816E-04  9.000012E+00 -8.374162E-08  1.744717E-05  2.198829E-08 -2.657362E-08
      1209  22  1.063546E-04  9.000009E+00 -7.414177E-09  7.316095E-06 -2.497323E-08  1.775887E-10
      1209  23  1.076323E-04  9.000010E+00  5.034468E-08  1.168893E-05 -5.859801E-09  4.684832E-09
      1209  24  1.088584E-04  9.000010E+00  6.805132E-09  1.661554E-05  1.325364E-08  7.159080E-09
      1209  25  1.101229E-04  9.000007E+00 -4.693644E-08  6.901656E-06 -3.272318E-08  1.110869E-08
      1209  26  1.121337E-04  9.000007E+00  5.309525E-08  1.104369E-05 -1.262184E-08  2.701674E-08
      1209  27  1.140908E-04  9.000008E+00  4.708502E-08  1.573950E-05  7.479518E-09  4.089177E-08
      1210   1  1.037662E-04  9.000013E+00 -4.803686E-08  2.057620E-05  1.877581E-09  4.585259E-09
      1210   2  1.045000E-04  9.000013E+00  2.868742E-08  2.498653E-05  2.369859E-08 -4.940010E-08
      1210   3  1.051505E-04  9.000014E+00  1.049409E-07  3.061209E-05  4.551961E-08 -5.409597E-08
      1210   4  1.098277E-04  9.000010E+00 -9.911648E-09  1.970179E-05  3.338636E-08 -1.605781E-08
      1210   5  1.120750E-04  9.000011E+00  5.044111E-08  2.400954E-05 -1.106194E-08 -1.365995E-08
      1210   6  1.141898E-04  9.000011E+00 -4.685748E-09  2.953253E-05 -5.551025E-08  3.802736E-08
      1210   7  1.158270E-04  9.000008E+00  6.341883E-08  1.870169E-05  9.985630E-08 -3.670083E-08
      1210   8  1.195180E-04  9.000008E+00 -5.575208E-08  2.290686E-05 -1.086132E-08  2.208015E-08
      1210   9  1.230271E-04  9.000008E+00 -4.054114E-07  2.832727E-05 -1.215789E-07  1.301507E-07
      1210  10  1.038489E-04  9.000013E+00 -4.976590E-09  2.042493E-05 -2.502687E-15 -2.123720E-14
      1210  11  1.045675E-04  9.000013E+00  5.651612E-08  2.476707E-05  2.045827E-15 -2.337434E-14
      1210  12  1.052027E-04  9.000014E+00  1.175381E-07  3.032444E-05 -2.467532E-15  2.002882E-15
      1210  13  1.097911E-04  9.000010E+00 -1.799053E-08  1.954544E-05  8.031635E-16 -2.028509E-14
      1210  14  1.120232E-04  9.000011E+00  2.713070E-08  2.378500E-05 -5.189998E-15 -1.425278E-14
      1210  15  1.141227E-04  9.000011E+00 -4.322772E-08  2.923980E-05 -2.120795E-15 -1.222839E-14
      1210  16  1.156711E-04  9.000008E+00  4.200793E-09  1.854026E-05 -6.630258E-15 -1.920107E-14
      1210  17  1.193469E-04  9.000008E+00 -1.302016E-07  2.267725E-05 -6.847207E-15 -2.137926E-14
      1210  18  1.228407E-04  9.000008E+00 -4.950925E-07  2.802947E-05 -2.408194E-15 -2.502937E-14
      1210  19  1.037662E-04  9.000013E+00 -4.803685E-08  2.057620E-05 -1.877588E-09 -4.585267E-09
      1210  20  1.045000E-04  9.000013E+00  2.868743E-08  2.498653E-05 -2.369859E-08  4.940007E-08
      1210  21  1.051505E-04  9.000014E+00  1.049408E-07  3.061209E-05 -4.551961E-08  5.409600E-08
      1210  22  1.098277E-04  9.000010E+00 -9.911668E-09  1.970179E-05 -3.338636E-08  1.605779E-08
      1210  23  1.120750E-04  9.000011E+00  5.044107E-08  2.400954E-05  1.106193E-08  1.365995E-08
      1210  24  1.141898E-04  9.000011E+00 -4.685810E-09  2.953253E-05  5.551024E-08 -3.802739E-08
      1210  25  1.158270E-04  9.000008E+00  6.341883E-08  1.870169E-05 -9.985631E-08  3.670083E-08
      1210  26  1.195180E-04  9.000008E+00 -5.575213E-08  2.290686E-05  1.086130E-08 -2.208020E-08
      1210  27  1.230271E-04  9.000008E+00 -4.054115E-07  2.832727E-05  1.215789E-07 -1.301508E-07
      1211   1  1.054459E-04  9.000014E+00  1.123371E-07  3.376286E-05  8.551911E-09 -1.445920E-08
      1211   2  1.045824E-04  9.000012E+00 -2.476660E-07  3.661167E-05 -3.068856E-08  1.053168E-07
      1211   3  1.037005E-04  9.000010E+00 -2.437587E-07  4.095119E-05 -6.992900E-08  2.416460E-07
      1211   4  1.153604E-04  9.000011E+00 -5.717032E-08  3.269500E-05 -4.597956E-08  4.156197E-08
      1211   5  1.168711E-04  9.000011E+00 -9.514899E-08  3.582673E-05 -3.041108E-09 -1.910997E-08
      1211   6  1.183468E-04  9.000010E+00  1.921590E-07  4.044916E-05  3.989738E-08 -6.322886E-08
      1211   7  1.258668E-04  9.000009E+00 -1.277933E-07  3.168935E-05 -1.803300E-07  9.758320E-08
      1211   8  1.299114E-04  9.000010E+00  5.287410E-07  3.510400E-05 -5.521260E-08 -1.435368E-07
      1211   9  1.339044E-04  9.000010E+00  1.471938E-06  4.000935E-05  6.990480E-08 -3.681036E-07
      1211  10  1.055542E-04  9.000014E+00  1.425244E-07  3.342420E-05 -9.127641E-15  2.611846E-15
      1211  11  1.046673E-04  9.000012E+00 -2.408901E-07  3.632844E-05 -9.582790E-15 -1.780658E-14
      1211  12  1.037620E-04  9.000010E+00 -2.603941E-07  4.072338E-05 -2.786507E-15 -4.602263E-15
      1211  13  1.155657E-04  9.000011E+00  1.458700E-08  3.234854E-05 -8.325620E-15 -1.066354E-14
      1211  14  1.170530E-04  9.000011E+00 -4.680292E-08  3.553570E-05 -6.963166E-15 -1.219737E-14
      1211  15  1.185053E-04  9.000010E+00  2.170937E-07  4.021355E-05  5.364327E-15 -3.146001E-14
      1211  16  1.261691E-04  9.000009E+00 -1.446587E-08  3.133509E-05 -5.435789E-15 -1.673145E-14
      1211  17  1.301903E-04  9.000010E+00  6.186572E-07  3.480516E-05 -5.108043E-16 -4.409140E-15
      1211  18  1.341599E-04  9.000010E+00  1.538443E-06  3.976594E-05  1.350706E-14 -3.751384E-14
      1211  19  1.054459E-04  9.000014E+00  1.123371E-07  3.376286E-05 -8.551911E-09  1.445923E-08
      1211  20  1.045824E-04  9.000012E+00 -2.476660E-07  3.661167E-05  3.068854E-08 -1.053168E-07
      1211  21  1.037005E-04  9.000010E+00 -2.437587E-07  4.095119E-05  6.992900E-08 -2.416459E-07
      1211  22  1.153604E-04  9.000011E+00 -5.717039E-08  3.269500E-05  4.597956E-08 -4.156198E-08
      1211  23  1.168711E-04  9.000011E+00 -9.514890E-08  3.582673E-05  3.041096E-09  1.910997E-08
      1211  24  1.183468E-04  9.000010E+00  1.921590E-07  4.044916E-05 -3.989736E-08  6.322880E-08
      1211  25  1.258668E-04  9.000009E+00 -1.277933E-07  3.168935E-05  1.803300E-07 -9.758321E-08
      1211  26  1.299114E-04  9.000010E+00  5.287411E-07  3.510400E-05  5.521260E-08  1.435368E-07
      1211  27  1.339044E-04  9.000010E+00  1.471938E-06  4.000935E-05 -6.990476E-08  3.681035E-07
      1212   1  1.027408E-04  9.000009E+00 -1.532874E-07  4.229598E-05 -3.064841E-08  7.666410E-08
      1212   2  9.956265E-05  9.000005E+00  6.503691E-07  3.902316E-05 -2.352420E-08 -5.459204E-07
      1212   3  9.610587E-05  8.999999E+00  2.982133E-06  3.813046E-05 -1.640002E-08 -1.026927E-06
      1212   4  1.174519E-04  9.000008E+00 -3.935002E-07  4.230328E-05  1.880996E-07 -8.436213E-08
      1212   5  1.169439E-04  9.000004E+00 -2.908758E-07  4.028987E-05  1.770062E-07 -3.216434E-08
      1212   6  1.160158E-04  8.999997E+00  1.009507E-06  4.065659E-05  1.659128E-07  1.616117E-07
      1212   7  1.353164E-04  9.000009E+00  7.113072E-07  4.206005E-05  9.014629E-07 -2.453883E-07
      1212   8  1.364895E-04  9.000003E+00 -2.195305E-06  4.130606E-05  8.721519E-07  4.815917E-07
      1212   9  1.371008E-04  8.999994E+00 -4.234509E-06  4.293219E-05  8.428410E-07  1.350150E-06
      1212  10  1.034544E-04  9.000009E+00  4.683575E-08  4.188106E-05  1.469638E-14 -8.485302E-15
      1212  11  9.992249E-05  9.000005E+00  4.967379E-07  3.854149E-05  1.008717E-14 -3.927329E-14
      1212  12  9.611196E-05  8.999997E+00  2.474748E-06  3.758203E-05  1.388150E-15 -4.224134E-14
      1212  13  1.180486E-04  9.000008E+00 -2.434432E-07  4.177044E-05  2.354784E-14 -3.560633E-14
      1212  14  1.171869E-04  9.000003E+00 -4.945733E-07  3.969028E-05  8.914658E-15 -2.882821E-14
      1212  15  1.159051E-04  8.999995E+00  4.520552E-07  3.999024E-05 -5.016811E-15 -1.582875E-14
      1212  16  1.357963E-04  9.000009E+00  8.112979E-07  4.140930E-05  2.548531E-14 -4.635748E-14
      1212  17  1.366157E-04  9.000002E+00 -2.449069E-06  4.058855E-05  1.119130E-14 -3.208604E-14
      1212  18  1.368733E-04  8.999992E+00 -4.842027E-06  4.214793E-05  1.691717E-15 -4.982592E-15
      1212  19  1.027408E-04  9.000009E+00 -1.532875E-07  4.229598E-05  3.064843E-08 -7.666409E-08
      1212  20  9.956265E-05  9.000005E+00  6.503691E-07  3.902316E-05  2.352422E-08  5.459203E-07
      1212  21  9.610587E-05  8.999999E+00  2.982133E-06  3.813046E-05  1.640001E-08  1.026927E-06
      1212  22  1.174519E-04  9.000008E+00 -3.935002E-07  4.230328E-05 -1.880996E-07  8.436209E-08
      1212  23  1.169439E-04  9.000004E+00 -2.908758E-07  4.028987E-05 -1.770062E-07  3.216431E-08
      1212  24  1.160158E-04  8.999997E+00  1.009507E-06  4.065659E-05 -1.659128E-07 -1.616117E-07
      1212  25  1.353164E-04  9.000009E+00  7.113073E-07  4.206005E-05 -9.014629E-07  2.453883E-07
      1212  26  1.364895E-04  9.000003E+00 -2.195305E-06  4.130606E-05 -8.721519E-07 -4.815917E-07
      1212  27  1.371008E-04  8.999994E+00 -4.234509E-06  4.293219E-05 -8.428410E-07 -1.350150E-06
      1213   1  8.874226E-05  8.999986E+00  7.330641E-07  3.311545E-05  4.792646E-07 -5.239552E-07
      1213   2  8.101449E-05  8.999947E+00 -3.575803E-06  1.737305E-05  5.942739E-07  1.102852E-06
      1213   3  6.800234E-05  8.999891E+00 -8.966345E-06 -9.869973E-08  7.092833E-07  1.968591E-06
      1213   4  1.075961E-04  8.999987E+00 -1.280254E-06  3.451819E-05 -2.777357E-07  3.030558E-07
      1213   5  1.041897E-04  8.999963E+00  9.033701E-07  1.982383E-05 -2.124500E-06  1.269506E-08
      1213   6  9.625998E-05  8.999923E+00  3.781144E-06  3.400137E-06 -3.971264E-06 -1.038734E-06
      1213   7  1.317610E-04  8.999989E+00 -3.768455E-06  3.825971E-05 -2.453028E-06  1.130067E-06
      1213   8  1.355125E-04  8.999983E+00  1.152636E-05  2.461341E-05 -6.261566E-06 -1.077462E-06
      1213   9  1.355018E-04  8.999962E+00  2.929115E-05  9.237761E-06 -1.007010E-05 -4.046059E-06
      1213  10  9.026728E-05  8.999986E+00  9.898191E-07  3.273170E-05 -1.565708E-14 -2.723254E-14
      1213  11  8.357385E-05  8.999949E+00 -2.284704E-06  1.580337E-05 -1.355375E-14 -8.157437E-15
      1213  12  7.159605E-05  8.999895E+00 -6.640902E-06 -2.854307E-06  6.553196E-15 -2.323739E-14
      1213  13  1.070458E-04  8.999985E+00 -1.912946E-06  3.447922E-05 -9.666734E-15 -6.504341E-15
      1213  14  1.046737E-04  8.999964E+00  1.305022E-06  1.859894E-05 -6.484893E-15  2.736104E-15
      1213  15  9.777831E-05  8.999926E+00  5.217140E-06  9.893117E-07  2.955918E-15 -1.914770E-14
      1213  16  1.291353E-04  8.999986E+00 -5.290594E-06  3.856552E-05 -5.081926E-15  6.160200E-15
      1213  17  1.339211E-04  8.999983E+00  1.103856E-05  2.373329E-05 -4.746508E-15  3.610949E-15
      1213  18  1.349448E-04  8.999964E+00  2.983770E-05  7.171716E-06 -9.101899E-15 -8.045194E-15
      1213  19  8.874227E-05  8.999986E+00  7.330642E-07  3.311545E-05 -4.792646E-07  5.239551E-07
      1213  20  8.101449E-05  8.999947E+00 -3.575803E-06  1.737305E-05 -5.942740E-07 -1.102852E-06
      1213  21  6.800234E-05  8.999891E+00 -8.966345E-06 -9.869983E-08 -7.092833E-07 -1.968591E-06
      1213  22  1.075961E-04  8.999987E+00 -1.280254E-06  3.451819E-05  2.777357E-07 -3.030557E-07
      1213  23  1.041897E-04  8.999963E+00  9.033701E-07  1.982383E-05  2.124500E-06 -1.269503E-08
      1213  24  9.625998E-05  8.999923E+00  3.781144E-06  3.400137E-06  3.971264E-06  1.038734E-06
      1213  25  1.317610E-04  8.999989E+00 -3.768455E-06  3.825971E-05  2.453028E-06 -1.130067E-06
      1213  26  1.355125E-04  8.999983E+00  1.152636E-05  2.461341E-05  6.261566E-06  1.077462E-06
      1213  27  1.355018E-04  8.999962E+00  2.929115E-05  9.237761E-06  1.007010E-05  4.046059E-06
      1214   1  7.887379E-05  8.999865E+00 -3.274346E-07 -2.731542E-05 -1.948638E-06  3.469296E-06
      1214   2  1.159307E-04  8.999802E+00  2.003764E-05 -2.683113E-05 -4.478300E-06 -5.086943E-07
      1214   3  1.275399E-04  8.999677E+00  1.672661E-05 -1.464100E-05 -7.007962E-06 -1.805867E-05
      1214   4  7.430624E-05  8.999874E+00 -9.053565E-06 -2.600444E-05  3.482960E-06  9.325935E-07
      1214   5  1.103180E-04  8.999773E+00 -4.924836E-06 -3.128961E-05  1.181638E-05  4.890602E-07
      1214   6  1.344541E-04  8.999624E+00  7.195757E-06 -2.486894E-05  2.014980E-05 -1.352646E-05
      1214   7  7.677810E-05  8.999888E+00 -1.187444E-05 -3.099889E-05  1.499357E-05 -1.604109E-06
      1214   8  9.958673E-05  8.999737E+00 -5.235078E-05 -4.205352E-05  3.419007E-05  1.486815E-06
      1214   9  1.240916E-04  8.999551E+00 -5.316728E-05 -4.140231E-05  5.338657E-05 -8.994249E-06
      1214  10  7.527772E-05  8.999861E+00 -2.524524E-06 -2.695912E-05  1.421607E-14 -2.302876E-14
      1214  11  1.026331E-04  8.999775E+00  8.139042E-06 -1.323802E-05  1.999796E-15 -1.131961E-14
      1214  12  1.045408E-04  8.999628E+00 -4.873502E-06  1.218891E-05 -1.000356E-14 -2.750447E-14
      1214  13  9.387458E-05  8.999881E+00 -1.323050E-06 -2.888198E-05 -4.587431E-15 -2.611398E-14
      1214  14  1.201848E-04  8.999757E+00 -6.895831E-06 -2.093034E-05 -8.696646E-15 -1.212496E-14
      1214  15  1.346194E-04  8.999585E+00 -4.476750E-06 -1.272869E-06 -7.454602E-15 -4.863996E-14
      1214  16  1.195109E-04  8.999904E+00  5.783678E-06 -3.711027E-05 -1.436175E-14 -1.101631E-14
      1214  17  1.326180E-04  8.999730E+00 -4.439417E-05 -3.492808E-05 -5.050596E-15 -1.746923E-14
      1214  18  1.474213E-04  8.999522E+00 -5.491218E-05 -2.104007E-05 -2.815684E-15 -4.122577E-14
      1214  19  7.887379E-05  8.999865E+00 -3.274347E-07 -2.731542E-05  1.948638E-06 -3.469296E-06
      1214  20  1.159307E-04  8.999802E+00  2.003764E-05 -2.683113E-05  4.478300E-06  5.086943E-07
      1214  21  1.275399E-04  8.999677E+00  1.672661E-05 -1.464100E-05  7.007962E-06  1.805867E-05
      1214  22  7.430624E-05  8.999874E+00 -9.053565E-06 -2.600444E-05 -3.482960E-06 -9.325935E-07
      1214  23  1.103180E-04  8.999773E+00 -4.924836E-06 -3.128961E-05 -1.181638E-05 -4.890602E-07
      1214  24  1.344541E-04  8.999624E+00  7.195757E-06 -2.486894E-05 -2.014980E-05  1.352646E-05
      1214  25  7.677810E-05  8.999888E+00 -1.187444E-05 -3.099889E-05 -1.499357E-05  1.604109E-06
      1214  26  9.958673E-05  8.999737E+00 -5.235078E-05 -4.205352E-05 -3.419007E-05 -1.486815E-06
      1214  27  1.240916E-04  8.999551E+00 -5.316728E-05 -4.140231E-05 -5.338657E-05  8.994249E-06
      1215   1  1.101177E-04  8.999628E+00  9.287581E-06  6.159687E-05 -1.167299E-06 -1.884521E-05
      1215   2  5.802071E-05  8.999640E+00  9.316697E-07  8.695180E-05  2.596326E-06 -3.323787E-06
      1215   3  1.557636E-05  8.999685E+00 -7.397295E-06  6.148856E-05  6.359950E-06 -3.296374E-07
      1215   4  1.879233E-04  8.999616E+00  3.460200E-05  8.930281E-05  4.028361E-05 -1.333439E-05
      1215   5  7.489627E-05  8.999668E+00  4.123650E-06  1.055104E-04  1.252405E-05  2.015547E-06
      1215   6 -1.595083E-05  8.999764E+00  2.902552E-06  7.089984E-05 -1.523551E-05  4.838211E-06
      1215   7  2.178636E-04  8.999571E+00 -2.531493E-06  1.293453E-04  7.430809E-05 -7.823571E-06
      1215   8  5.875946E-05  8.999677E+00 -2.047561E-05  1.364056E-04  1.502535E-05  7.354880E-06
      1215   9 -6.563753E-05  8.999840E+00  2.006782E-05  9.264771E-05 -4.425739E-05  1.000606E-05
      1215  10  9.175206E-05  8.999584E+00 -9.193534E-06  8.661586E-05 -8.741960E-15 -3.777619E-14
      1215  11  5.617163E-05  8.999636E+00 -1.032905E-06  9.302613E-05 -1.121762E-14 -1.426333E-14
      1215  12  3.024383E-05  8.999719E+00  7.154672E-06  4.861822E-05 -2.102679E-14  2.795754E-14
      1215  13  1.364045E-04  8.999558E+00  1.912385E-06  1.198273E-04 -4.842410E-15 -4.860745E-14
      1215  14  3.989404E-05  8.999649E+00 -1.204942E-05  1.170903E-04 -1.262869E-14 -5.132230E-15
      1215  15 -3.443652E-05  8.999784E+00  3.246023E-06  6.353502E-05 -2.350923E-14  2.418921E-14
      1215  16  1.331917E-04  8.999499E+00 -4.942960E-05  1.653753E-04 -2.446572E-15 -3.675798E-14
      1215  17 -9.395925E-06  8.999644E+00 -5.085718E-05  1.534910E-04 -4.170956E-15 -4.836572E-15
      1215  18 -1.172764E-04  8.999845E+00  6.202793E-06  9.078840E-05 -2.066322E-14  1.660341E-14
      1215  19  1.101177E-04  8.999628E+00  9.287581E-06  6.159687E-05  1.167299E-06  1.884521E-05
      1215  20  5.802071E-05  8.999640E+00  9.316697E-07  8.695180E-05 -2.596326E-06  3.323787E-06
      1215  21  1.557636E-05  8.999685E+00 -7.397295E-06  6.148856E-05 -6.359950E-06  3.296375E-07
      1215  22  1.879233E-04  8.999616E+00  3.460200E-05  8.930281E-05 -4.028361E-05  1.333439E-05
      1215  23  7.489627E-05  8.999668E+00  4.123651E-06  1.055104E-04 -1.252405E-05 -2.015547E-06
      1215  24 -1.595083E-05  8.999764E+00  2.902552E-06  7.089984E-05  1.523551E-05 -4.838211E-06
      1215  25  2.178636E-04  8.999571E+00 -2.531493E-06  1.293453E-04 -7.430809E-05  7.823571E-06
      1215  26  5.875946E-05  8.999677E+00 -2.047561E-05  1.364056E-04 -1.502535E-05 -7.354880E-06
      1215  27 -6.563753E-05  8.999840E+00  2.006782E-05  9.264771E-05  4.425739E-05 -1.000606E-05
      1301   1 -6.143873E-05  8.999874E+00  2.933573E-05 -1.240543E-04  3.986914E-05  1.051943E-05
      1301   2  5.978472E-05  8.999744E+00 -2.257693E-05 -1.492334E-04  6.503375E-06  3.570179E-05
      1301   3 -1.210241E-05  8.999133E+00 -2.385603E-04 -2.505781E-04 -2.686239E-05  5.985577E-05
      1301   4 -4.579761E-06  9.000048E+00  7.084694E-05 -3.525684E-05 -1.468503E-05 -8.217161E-05
      1301   5 -7.272711E-05  8.999730E+00 -9.541424E-05 -2.122620E-04  7.253586E-05  9.139612E-05
      1301   6 -3.329567E-04  8.998934E+00 -4.233466E-04 -4.654328E-04  1.597568E-04  2.639355E-04
      1301   7 -8.983945E-05  9.000159E+00  4.806750E-05  3.513273E-05 -7.800509E-05 -1.748626E-04
      1301   8 -3.298258E-04  8.999672E+00 -1.916347E-04 -2.936985E-04  1.298025E-04  1.470905E-04
      1301   9 -7.608660E-04  8.998708E+00 -5.906085E-04 -6.986952E-04  3.376100E-04  4.680152E-04
      1301  10 -1.972135E-04  8.999614E+00 -8.958222E-05 -1.596496E-04 -1.521186E-14 -4.227472E-14
      1301  11  1.106667E-04  8.999919E+00  4.516193E-05 -9.400316E-05 -8.576483E-15 -1.297277E-14
      1301  12  2.254364E-04  8.999744E+00  1.583538E-05 -1.045222E-04 -6.584959E-15  1.148806E-14
      1301  13  1.859029E-05  8.999855E+00  2.004822E-05 -8.633284E-06  2.769015E-15 -5.605418E-14
      1301  14  1.370998E-04  8.999973E+00  4.044385E-05 -9.481282E-05 -3.855172E-15 -4.003705E-15
      1301  15  6.352701E-05  8.999613E+00 -1.008317E-04 -2.571579E-04 -2.309754E-15  1.487246E-14
      1301  16  9.227546E-05  9.000035E+00  6.538801E-05  1.239752E-04 -1.451951E-15 -6.668820E-14
      1301  17  3.894592E-05  8.999984E+00  1.234263E-05 -1.140303E-04 -4.546648E-15 -1.185290E-14
      1301  18 -2.054375E-04  8.999455E+00 -1.999744E-04 -4.282015E-04  4.392788E-15  5.423997E-16
      1301  19 -6.143873E-05  8.999874E+00  2.933573E-05 -1.240543E-04 -3.986914E-05 -1.051943E-05
      1301  20  5.978472E-05  8.999744E+00 -2.257693E-05 -1.492334E-04 -6.503375E-06 -3.570179E-05
      1301  21 -1.210241E-05  8.999133E+00 -2.385603E-04 -2.505781E-04  2.686239E-05 -5.985577E-05
      1301  22 -4.579761E-06  9.000048E+00  7.084694E-05 -3.525684E-05  1.468503E-05  8.217161E-05
      1301  23 -7.272711E-05  8.999730E+00 -9.541424E-05 -2.122620E-04 -7.253586E-05 -9.139612E-05
      1301  24 -3.329567E-04  8.998934E+00 -4.233466E-04 -4.654328E-04 -1.597568E-04 -2.639355E-04
      1301  25 -8.983945E-05  9.000159E+00  4.806750E-05  3.513273E-05  7.800509E-05  1.748626E-04
      1301  26 -3.298258E-04  8.999672E+00 -1.916347E-04 -2.936985E-04 -1.298025E-04 -1.470905E-04
      1301  27 -7.608660E-04  8.998708E+00 -5.906085E-04 -6.986952E-04 -3.376100E-04 -4.680152E-04
      1302   1 -3.768045E-05  8.999098E+00 -2.716238E-04 -1.482397E-05 -1.248656E-05  5.298546E-05
      1302   2  1.104956E-04  8.999710E+00 -7.433395E-05  1.977141E-05 -1.887910E-05  1.202842E-05
      1302   3  1.137831E-04  8.999945E+00  1.760429E-05  2.830548E-05 -2.527163E-05 -1.941206E-05
      1302   4  9.246040E-05  8.999075E+00 -2.592410E-04  3.293013E-05  1.717089E-04  2.658884E-04
      1302   5  2.247314E-04  8.999722E+00 -3.714974E-05  4.440831E-05  6.651680E-05  1.068669E-04
      1302   6  2.025972E-04  8.999982E+00  5.738464E-05  2.982517E-05 -3.867534E-05 -4.263798E-05
      1302   7  3.165069E-04  8.999111E+00 -1.446227E-04  8.692366E-05  3.659466E-04  4.787913E-04
      1302   8  4.127885E-04  8.999773E+00  5.540663E-05  7.528463E-05  1.619549E-04  2.017054E-04
      1302   9  3.451482E-04  9.000039E+00  1.056737E-04  3.758428E-05 -4.203688E-05 -6.586391E-05
      1302  10  2.495178E-04  8.999747E+00  9.249065E-06  1.217519E-04 -1.616600E-14  1.798539E-14
      1302  11  2.422766E-04  8.999997E+00  5.112157E-05  7.867884E-05 -2.140137E-14 -9.531676E-15
      1302  12  9.014664E-05  8.999869E+00 -1.235754E-05  9.544499E-06 -3.893499E-15 -6.774881E-14
      1302  13  2.437389E-04  8.999666E+00 -3.661948E-05  1.177002E-04 -3.659417E-15  1.156146E-14
      1302  14  2.205926E-04  8.999950E+00  3.005447E-05  5.150995E-05 -8.598546E-15 -1.094687E-14
      1302  15  4.304102E-05  8.999848E+00 -3.082850E-05 -4.074160E-05  4.133703E-15 -5.478286E-14
      1302  16  3.318657E-04  8.999643E+00  1.974756E-05  1.198879E-04  1.112169E-14  3.956131E-15
      1302  17  2.727299E-04  8.999943E+00  6.435954E-05  3.058049E-05  4.143078E-15 -1.166963E-14
      1302  18  4.967237E-05  8.999846E+00 -4.079074E-05 -8.478827E-05 -2.821905E-15 -5.306459E-14
      1302  19 -3.768045E-05  8.999098E+00 -2.716238E-04 -1.482397E-05  1.248656E-05 -5.298546E-05
      1302  20  1.104956E-04  8.999710E+00 -7.433395E-05  1.977141E-05  1.887910E-05 -1.202842E-05
      1302  21  1.137831E-04  8.999945E+00  1.760429E-05  2.830548E-05  2.527163E-05  1.941206E-05
      1302  22  9.246040E-05  8.999075E+00 -2.592410E-04  3.293013E-05 -1.717089E-04 -2.658884E-04
      1302  23  2.247314E-04  8.999722E+00 -3.714974E-05  4.440831E-05 -6.651680E-05 -1.068669E-04
      1302  24  2.025972E-04  8.999982E+00  5.738464E-05  2.982517E-05  3.867534E-05  4.263798E-05
      1302  25  3.165069E-04  8.999111E+00 -1.446227E-04  8.692366E-05 -3.659466E-04 -4.787913E-04
      1302  26  4.127885E-04  8.999773E+00  5.540663E-05  7.528463E-05 -1.619549E-04 -2.017054E-04
      1302  27  3.451482E-04  9.000039E+00  1.056737E-04  3.758428E-05  4.203688E-05  6.586391E-05
      1303   1  1.638537E-04  8.999988E+00  4.937458E-05 -7.535323E-06  2.992326E-06 -2.011887E-05
      1303   2  1.612868E-04  9.000009E+00  2.244561E-05 -2.371171E-05  3.519430E-06 -3.091520E-06
      1303   3  1.447942E-04  8.999987E+00 -8.370498E-06 -4.095985E-05  4.046534E-06  4.886592E-06
      1303   4  2.004452E-04  9.000009E+00  5.969665E-05 -6.666358E-07 -3.033507E-05 -6.964738E-05
      1303   5  1.855112E-04  9.000013E+00  1.248274E-05 -2.338746E-05 -1.294679E-05 -2.494419E-05
      1303   6  1.657008E-04  8.999984E+00 -1.750343E-05 -4.718003E-05  4.441482E-06  1.070976E-05
      1303   7  2.264255E-04  9.000018E+00  4.323549E-05  4.952253E-06 -6.674586E-05 -1.191759E-04
      1303   8  2.052911E-04  9.000012E+00 -9.874182E-06 -2.431301E-05 -3.249641E-05 -4.679686E-05
      1303   9  1.883296E-04  8.999982E+00 -2.464122E-05 -5.465002E-05  1.753034E-06  1.653292E-05
      1303  10  1.006339E-04  8.999830E+00 -1.706386E-05 -3.405525E-05  1.554337E-15 -6.109302E-14
      1303  11  1.361400E-04  8.999939E+00 -5.919873E-06 -3.419230E-05 -2.127811E-15 -1.443256E-14
      1303  12  1.577204E-04  9.000006E+00  1.336975E-06 -3.540109E-05  2.196563E-15 -2.819989E-14
      1303  13  1.652943E-04  8.999862E+00  5.287718E-06 -1.449558E-05 -5.796297E-15 -5.855801E-14
      1303  14  1.884332E-04  8.999955E+00 -3.853238E-06 -2.117706E-05 -9.489799E-15 -1.549151E-14
      1303  15  2.066957E-04  9.000015E+00  4.233551E-06 -2.893029E-05 -5.685707E-15 -4.273311E-14
      1303  16  2.193434E-04  8.999884E+00  8.560618E-07  3.814299E-06 -2.885697E-14 -4.234040E-14
      1303  17  2.362820E-04  8.999967E+00 -1.418065E-05 -9.411624E-06 -3.140858E-14 -2.451140E-14
      1303  18  2.573934E-04  9.000025E+00  9.125262E-06 -2.370929E-05 -1.122599E-14 -8.343153E-14
      1303  19  1.638537E-04  8.999988E+00  4.937458E-05 -7.535323E-06 -2.992326E-06  2.011887E-05
      1303  20  1.612868E-04  9.000009E+00  2.244561E-05 -2.371171E-05 -3.519430E-06  3.091520E-06
      1303  21  1.447942E-04  8.999987E+00 -8.370498E-06 -4.095985E-05 -4.046534E-06 -4.886592E-06
      1303  22  2.004452E-04  9.000009E+00  5.969665E-05 -6.666357E-07  3.033507E-05  6.964737E-05
      1303  23  1.855112E-04  9.000013E+00  1.248274E-05 -2.338746E-05  1.294679E-05  2.494419E-05
      1303  24  1.657008E-04  8.999984E+00 -1.750343E-05 -4.718003E-05 -4.441482E-06 -1.070976E-05
      1303  25  2.264255E-04  9.000018E+00  4.323549E-05  4.952253E-06  6.674585E-05  1.191759E-04
      1303  26  2.052911E-04  9.000012E+00 -9.874182E-06 -2.431301E-05  3.249641E-05  4.679686E-05
      1303  27  1.883296E-04  8.999982E+00 -2.464122E-05 -5.465002E-05 -1.753034E-06 -1.653292E-05
      1304   1  1.457139E-04  8.999981E+00 -1.241216E-05 -4.330852E-05  9.245905E-07  4.328959E-06
      1304   2  1.473387E-04  8.999998E+00 -4.675678E-06 -4.117705E-05 -2.230700E-07  1.043700E-06
      1304   3  1.470388E-04  9.000010E+00  2.048671E-06 -4.152802E-05 -1.370731E-06 -1.051939E-06
      1304   4  1.722981E-04  8.999981E+00 -1.367715E-05 -3.996287E-05  8.396660E-06  1.627076E-05
      1304   5  1.717250E-04  8.999998E+00 -3.047315E-06 -3.692333E-05  3.424018E-06  6.336310E-06
      1304   6  1.680374E-04  9.000009E+00  3.794609E-06 -3.636625E-05 -1.548624E-06 -2.408522E-06
      1304   7  2.040854E-04  8.999983E+00 -8.727721E-06 -3.655399E-05  1.649167E-05  2.821256E-05
      1304   8  2.000684E-04  9.000000E+00  1.888419E-06 -3.260640E-05  7.694045E-06  1.162892E-05
      1304   9  1.917474E-04  9.000009E+00  5.940871E-06 -3.114125E-05 -1.103578E-06 -3.765105E-06
      1304  10  1.604447E-04  9.000018E+00  2.922691E-06 -3.701230E-05  3.402596E-15 -2.556288E-14
      1304  11  1.531876E-04  9.000014E+00  1.777216E-06 -3.819567E-05  2.282040E-15 -8.688011E-15
      1304  12  1.440057E-04  9.000005E+00 -3.803883E-07 -4.186148E-05 -5.105703E-15 -2.383660E-14
      1304  13  1.812279E-04  9.000015E+00 -8.284334E-07 -3.662730E-05  1.115930E-14 -4.502061E-14
      1304  14  1.717728E-04  9.000011E+00  9.194460E-07 -3.690261E-05  1.064124E-14  1.225270E-15
      1304  15  1.592033E-04  9.000001E+00 -1.120583E-06 -3.966036E-05  1.027434E-14 -9.329444E-15
      1304  16  2.072142E-04  9.000015E+00  1.634861E-06 -3.617907E-05  2.102451E-14 -7.705691E-14
      1304  17  1.943153E-04  9.000011E+00  3.369048E-06 -3.554632E-05  1.961134E-14 -7.873565E-15
      1304  18  1.771123E-04  8.999999E+00 -1.460453E-06 -3.739602E-05  1.869095E-14 -1.419178E-14
      1304  19  1.457139E-04  8.999981E+00 -1.241216E-05 -4.330852E-05 -9.245905E-07 -4.328959E-06
      1304  20  1.473387E-04  8.999998E+00 -4.675678E-06 -4.117705E-05  2.230700E-07 -1.043700E-06
      1304  21  1.470388E-04  9.000010E+00  2.048671E-06 -4.152802E-05  1.370731E-06  1.051939E-06
      1304  22  1.722981E-04  8.999981E+00 -1.367715E-05 -3.996287E-05 -8.396660E-06 -1.627076E-05
      1304  23  1.717250E-04  8.999998E+00 -3.047315E-06 -3.692333E-05 -3.424018E-06 -6.336310E-06
      1304  24  1.680374E-04  9.000009E+00  3.794609E-06 -3.636625E-05  1.548624E-06  2.408522E-06
      1304  25  2.040854E-04  8.999983E+00 -8.727721E-06 -3.655399E-05 -1.649167E-05 -2.821256E-05
      1304  26  2.000684E-04  9.000000E+00  1.888419E-06 -3.260640E-05 -7.694045E-06 -1.162892E-05
      1304  27  1.917474E-04  9.000009E+00  5.940871E-06 -3.114125E-05  1.103578E-06  3.765105E-06
      1305   1  1.443571E-04  9.000011E+00  3.027110E-06 -3.925036E-05 -4.144343E-07 -1.183138E-06
      1305   2  1.379711E-04  9.000009E+00  1.085300E-06 -3.335422E-05 -7.012943E-08 -3.955846E-07
      1305   3  1.314936E-04  9.000007E+00 -5.625358E-07 -3.031874E-05  2.741754E-07  2.535812E-07
      1305   4  1.613520E-04  9.000009E+00  3.369469E-06 -3.481635E-05 -1.745648E-06 -4.017418E-06
      1305   5  1.510003E-04  9.000007E+00  8.647235E-07 -2.929648E-05 -7.302857E-07 -1.658770E-06
      1305   6  1.406954E-04  9.000004E+00 -1.023144E-06 -2.663728E-05  2.850763E-07  5.614908E-07
      1305   7  1.772615E-04  9.000006E+00  2.010329E-06 -3.017107E-05 -3.271633E-06 -6.851699E-06
      1305   8  1.633336E-04  9.000004E+00 -1.484144E-07 -2.502747E-05 -1.585214E-06 -2.921956E-06
      1305   9  1.495909E-04  9.000002E+00 -1.367376E-06 -2.274454E-05  1.012049E-07  8.694004E-07
      1305  10  1.410800E-04  9.000002E+00 -6.166515E-07 -3.974748E-05 -7.648339E-15 -2.266346E-14
      1305  11  1.368997E-04  9.000006E+00 -3.527420E-07 -3.329614E-05 -6.638433E-15 -8.952115E-15
      1305  12  1.326279E-04  9.000008E+00  2.051420E-07 -2.970548E-05  6.267841E-15 -4.650572E-14
      1305  13  1.590465E-04  9.000001E+00  1.420983E-07 -3.457823E-05 -2.015421E-15 -1.422851E-14
      1305  14  1.509005E-04  9.000004E+00 -1.569274E-07 -2.850317E-05 -4.710289E-15 -1.866044E-16
      1305  15  1.428013E-04  9.000006E+00  1.609251E-07 -2.528878E-05  2.435565E-15 -2.845829E-14
      1305  16  1.759275E-04  8.999998E+00 -8.006508E-07 -2.919770E-05 -2.823383E-15 -1.286976E-14
      1305  17  1.642054E-04  9.000001E+00 -7.536743E-07 -2.349892E-05 -9.989460E-15 -1.292258E-14
      1305  18  1.526684E-04  9.000004E+00  2.330838E-07 -2.066080E-05 -2.609953E-15 -4.556535E-14
      1305  19  1.443571E-04  9.000011E+00  3.027110E-06 -3.925036E-05  4.144343E-07  1.183138E-06
      1305  20  1.379711E-04  9.000009E+00  1.085300E-06 -3.335422E-05  7.012943E-08  3.955846E-07
      1305  21  1.314936E-04  9.000007E+00 -5.625357E-07 -3.031874E-05 -2.741754E-07 -2.535813E-07
      1305  22  1.613520E-04  9.000009E+00  3.369469E-06 -3.481635E-05  1.745648E-06  4.017418E-06
      1305  23  1.510003E-04  9.000007E+00  8.647236E-07 -2.929648E-05  7.302857E-07  1.658770E-06
      1305  24  1.406954E-04  9.000004E+00 -1.023144E-06 -2.663728E-05 -2.850763E-07 -5.614909E-07
      1305  25  1.772615E-04  9.000006E+00  2.010329E-06 -3.017107E-05  3.271633E-06  6.851699E-06
      1305  26  1.633336E-04  9.000004E+00 -1.484144E-07 -2.502747E-05  1.585214E-06  2.921956E-06
      1305  27  1.495909E-04  9.000002E+00 -1.367376E-06 -2.274454E-05 -1.012049E-07 -8.694005E-07
      1306   1  1.279368E-04  9.000006E+00 -9.268421E-07 -2.709539E-05  2.140580E-07  3.427877E-07
      1306   2  1.237043E-04  9.000006E+00 -2.599809E-07 -2.175133E-05  3.812919E-08  1.292699E-07
      1306   3  1.191919E-04  9.000006E+00  3.542929E-08 -1.773081E-05 -1.377996E-07 -2.264907E-08
      1306   4  1.369093E-04  9.000004E+00 -7.736511E-07 -2.325155E-05  5.127043E-07  9.968898E-07
      1306   5  1.309947E-04  9.000005E+00 -2.679534E-08 -1.853345E-05  1.789471E-07  4.019644E-07
      1306   6  1.247386E-04  9.000005E+00  2.048787E-07 -1.513890E-05 -1.548101E-07 -1.313621E-07
      1306   7  1.451310E-04  9.000002E+00 -5.204524E-07 -1.930600E-05  8.490644E-07  1.650992E-06
      1306   8  1.374588E-04  9.000003E+00  1.304008E-07 -1.521386E-05  3.574787E-07  6.746589E-07
      1306   9  1.293836E-04  9.000002E+00  1.223413E-07 -1.244527E-05 -1.341069E-07 -2.400751E-07
      1306  10  1.286458E-04  9.000008E+00 -6.013984E-08 -2.667908E-05  1.016667E-14 -4.369906E-14
      1306  11  1.238993E-04  9.000007E+00  9.278210E-08 -2.147649E-05  3.739274E-15 -1.444376E-14
      1306  12  1.188730E-04  9.000006E+00 -1.257471E-07 -1.759745E-05  4.853212E-15 -1.515032E-14
      1306  13  1.373707E-04  9.000006E+00 -1.305206E-08 -2.300656E-05  1.515524E-14 -4.118946E-14
      1306  14  1.309422E-04  9.000005E+00  2.198644E-07 -1.842993E-05  1.423898E-14 -9.721237E-16
      1306  15  1.241721E-04  9.000004E+00 -6.240093E-08 -1.517684E-05  7.465782E-15  1.419767E-14
      1306  16  1.453449E-04  9.000004E+00  1.340435E-07 -1.923232E-05  1.979348E-14 -4.551134E-14
      1306  17  1.371587E-04  9.000003E+00  2.709573E-07 -1.528165E-05  2.560103E-14  3.779672E-15
      1306  18  1.285696E-04  9.000002E+00 -2.510415E-07 -1.265453E-05  1.044071E-14  3.094139E-14
      1306  19  1.279368E-04  9.000006E+00 -9.268421E-07 -2.709539E-05 -2.140580E-07 -3.427878E-07
      1306  20  1.237043E-04  9.000006E+00 -2.599809E-07 -2.175133E-05 -3.812918E-08 -1.292699E-07
      1306  21  1.191919E-04  9.000006E+00  3.542933E-08 -1.773081E-05  1.377996E-07  2.264904E-08
      1306  22  1.369093E-04  9.000004E+00 -7.736511E-07 -2.325155E-05 -5.127043E-07 -9.968899E-07
      1306  23  1.309947E-04  9.000005E+00 -2.679533E-08 -1.853345E-05 -1.789471E-07 -4.019644E-07
      1306  24  1.247386E-04  9.000005E+00  2.048787E-07 -1.513890E-05  1.548101E-07  1.313621E-07
      1306  25  1.451310E-04  9.000002E+00 -5.204522E-07 -1.930600E-05 -8.490643E-07 -1.650992E-06
      1306  26  1.374588E-04  9.000003E+00  1.304008E-07 -1.521386E-05 -3.574787E-07 -6.746590E-07
      1306  27  1.293836E-04  9.000002E+00  1.223413E-07 -1.244527E-05  1.341069E-07  2.400752E-07
      1307   1  1.170210E-04  9.000006E+00  4.351300E-08 -1.490911E-05  2.811579E-09 -4.677495E-08
      1307   2  1.146587E-04  9.000006E+00  7.786601E-08 -1.037769E-05 -1.742793E-08 -1.137860E-08
      1307   3  1.120938E-04  9.000005E+00 -1.471603E-07 -6.501210E-06 -3.766743E-08  3.354147E-08
      1307   4  1.218272E-04  9.000004E+00  1.759220E-07 -1.274973E-05 -1.505991E-08 -2.411135E-07
      1307   5  1.186373E-04  9.000004E+00  1.992756E-07 -8.828631E-06 -3.478626E-08 -1.185609E-07
      1307   6  1.152353E-04  9.000004E+00 -5.897213E-08 -5.562463E-06 -5.451260E-08  1.351541E-08
      1307   7  1.257125E-04  9.000002E+00  1.603784E-08 -1.052459E-05 -4.175143E-08 -4.354520E-07
      1307   8  1.217126E-04  9.000002E+00  6.955207E-08 -7.213802E-06 -6.096460E-08 -2.257432E-07
      1307   9  1.174912E-04  9.000002E+00 -1.807571E-07 -4.557949E-06 -8.017779E-08 -6.510651E-09
      1307  10  1.168083E-04  9.000006E+00 -1.379998E-07 -1.481983E-05  4.100054E-15 -2.054836E-14
      1307  11  1.145639E-04  9.000006E+00  1.424907E-08 -1.029160E-05  1.108624E-15 -1.125073E-14
      1307  12  1.121169E-04  9.000005E+00 -9.288143E-08 -6.418304E-06  3.762448E-15  7.306135E-15
      1307  13  1.216090E-04  9.000004E+00 -7.980688E-09 -1.262115E-05 -5.726040E-15 -3.353128E-15
      1307  14  1.185370E-04  9.000004E+00  1.332687E-07 -8.703240E-06 -4.206276E-15  3.063269E-15
      1307  15  1.152529E-04  9.000004E+00 -7.083213E-09 -5.440259E-06 -1.897724E-15  3.016149E-14
      1307  16  1.254886E-04  9.000002E+00 -1.702548E-07 -1.035671E-05 -1.122601E-14  2.976447E-14
      1307  17  1.216067E-04  9.000002E+00  1.155263E-09 -7.049112E-06 -1.266553E-14  1.043414E-14
      1307  18  1.175032E-04  9.000002E+00 -1.312580E-07 -4.396445E-06 -7.506328E-15  2.285580E-14
      1307  19  1.170210E-04  9.000006E+00  4.351298E-08 -1.490911E-05 -2.811575E-09  4.677487E-08
      1307  20  1.146587E-04  9.000006E+00  7.786596E-08 -1.037769E-05  1.742793E-08  1.137859E-08
      1307  21  1.120938E-04  9.000005E+00 -1.471603E-07 -6.501210E-06  3.766744E-08 -3.354143E-08
      1307  22  1.218272E-04  9.000004E+00  1.759220E-07 -1.274973E-05  1.505991E-08  2.411134E-07
      1307  23  1.186373E-04  9.000004E+00  1.992756E-07 -8.828631E-06  3.478625E-08  1.185609E-07
      1307  24  1.152353E-04  9.000004E+00 -5.897212E-08 -5.562463E-06  5.451261E-08 -1.351535E-08
      1307  25  1.257125E-04  9.000002E+00  1.603792E-08 -1.052459E-05  4.175141E-08  4.354520E-07
      1307  26  1.217126E-04  9.000002E+00  6.955205E-08 -7.213802E-06  6.096460E-08  2.257432E-07
      1307  27  1.174912E-04  9.000002E+00 -1.807570E-07 -4.557949E-06  8.017778E-08  6.510716E-09
      1308   1  1.113728E-04  9.000005E+00 -1.623762E-07 -3.977923E-06  8.375619E-08  4.557848E-08
      1308   2  1.114809E-04  9.000005E+00 -8.374426E-09 -4.632211E-14 -7.889574E-15  4.134348E-08
      1308   3  1.113728E-04  9.000005E+00 -1.623763E-07  3.977923E-06 -8.375620E-08  4.557858E-08
      1308   4  1.143810E-04  9.000004E+00 -3.465353E-08 -3.360397E-06  1.069390E-07  5.091442E-08
      1308   5  1.144933E-04  9.000004E+00  1.292301E-07 -3.219641E-14 -1.806773E-14  4.667943E-08
      1308   6  1.143810E-04  9.000004E+00 -3.465347E-08  3.360397E-06 -1.069390E-07  5.091446E-08
      1308   7  1.164885E-04  9.000002E+00 -1.135406E-07 -2.742871E-06  1.301218E-07  5.625032E-08
      1308   8  1.166050E-04  9.000002E+00  6.022477E-08 -2.664794E-14 -1.530370E-14  5.201525E-08
      1308   9  1.164885E-04  9.000002E+00 -1.135405E-07  2.742871E-06 -1.301218E-07  5.625034E-08
      1308  10  1.113296E-04  9.000005E+00 -1.169252E-07 -3.957360E-06 -4.260108E-15  1.356686E-14
      1308  11  1.114377E-04  9.000006E+00  3.707668E-08 -4.235165E-14 -6.629272E-15 -5.920869E-15
      1308  12  1.113296E-04  9.000005E+00 -1.169252E-07  3.957360E-06  8.700313E-16 -2.671184E-14
      1308  13  1.143018E-04  9.000004E+00 -4.625007E-09 -3.339834E-06 -4.125269E-15  2.730066E-14
      1308  14  1.144141E-04  9.000004E+00  1.592586E-07 -3.125470E-14 -6.085051E-15  3.964519E-15
      1308  15  1.143018E-04  9.000004E+00 -4.624961E-09  3.339834E-06 -1.694627E-15 -2.544198E-14
      1308  16  1.163733E-04  9.000002E+00 -9.893464E-08 -2.722308E-06 -2.415450E-15  3.048704E-14
      1308  17  1.164898E-04  9.000002E+00  7.483077E-08 -2.677520E-14 -4.832757E-16 -1.498168E-14
      1308  18  1.163733E-04  9.000002E+00 -9.893459E-08  2.722308E-06  1.036657E-15 -5.117227E-14
      1308  19  1.113728E-04  9.000005E+00 -1.623763E-07 -3.977923E-06 -8.375620E-08 -4.557847E-08
      1308  20  1.114809E-04  9.000005E+00 -8.374424E-09 -8.228538E-14 -1.498013E-15 -4.134349E-08
      1308  21  1.113728E-04  9.000005E+00 -1.623763E-07  3.977923E-06  8.375621E-08 -4.557861E-08
      1308  22  1.143810E-04  9.000004E+00 -3.465353E-08 -3.360397E-06 -1.069390E-07 -5.091435E-08
      1308  23  1.144933E-04  9.000004E+00  1.292301E-07 -6.859236E-14  3.318066E-15 -4.667939E-08
      1308  24  1.143810E-04  9.000004E+00 -3.465343E-08  3.360397E-06  1.069390E-07 -5.091450E-08
      1308  25  1.164885E-04  9.000002E+00 -1.135406E-07 -2.742871E-06 -1.301218E-07 -5.625029E-08
      1308  26  1.166050E-04  9.000002E+00  6.022479E-08 -6.566541E-14  7.497853E-15 -5.201534E-08
      1308  27  1.164885E-04  9.000002E+00 -1.135405E-07  2.742871E-06  1.301218E-07 -5.625044E-08
      1309   1  1.120938E-04  9.000005E+00 -1.471603E-07  6.501210E-06  3.766744E-08  3.354153E-08
      1309   2  1.146587E-04  9.000006E+00  7.786599E-08  1.037769E-05  1.742793E-08 -1.137856E-08
      1309   3  1.170210E-04  9.000006E+00  4.351297E-08  1.490911E-05 -2.811589E-09 -4.677492E-08
      1309   4  1.152353E-04  9.000004E+00 -5.897208E-08  5.562463E-06  5.451262E-08  1.351546E-08
      1309   5  1.186373E-04  9.000004E+00  1.992756E-07  8.828631E-06  3.478627E-08 -1.185608E-07
      1309   6  1.218272E-04  9.000004E+00  1.759220E-07  1.274973E-05  1.505991E-08 -2.411134E-07
      1309   7  1.174912E-04  9.000002E+00 -1.807570E-07  4.557949E-06  8.017782E-08 -6.510652E-09
      1309   8  1.217126E-04  9.000002E+00  6.955206E-08  7.213802E-06  6.096462E-08 -2.257432E-07
      1309   9  1.257125E-04  9.000002E+00  1.603788E-08  1.052459E-05  4.175142E-08 -4.354520E-07
      1309  10  1.121169E-04  9.000005E+00 -9.288147E-08  6.418304E-06  1.144922E-14 -2.694384E-14
      1309  11  1.145639E-04  9.000006E+00  1.424905E-08  1.029160E-05  1.339562E-14 -1.866784E-14
      1309  12  1.168083E-04  9.000006E+00 -1.379998E-07  1.481983E-05  2.721542E-15 -2.710618E-15
      1309  13  1.152529E-04  9.000004E+00 -7.083202E-09  5.440259E-06  1.085729E-14 -3.805091E-14
      1309  14  1.185370E-04  9.000004E+00  1.332687E-07  8.703240E-06  1.277825E-14 -8.578838E-15
      1309  15  1.216090E-04  9.000004E+00 -7.980669E-09  1.262115E-05  8.521140E-15  3.844206E-14
      1309  16  1.175032E-04  9.000002E+00 -1.312580E-07  4.396445E-06  1.478843E-14 -4.748858E-14
      1309  17  1.216067E-04  9.000002E+00  1.155232E-09  7.049112E-06  1.123122E-14 -8.385350E-15
      1309  18  1.254886E-04  9.000002E+00 -1.702547E-07  1.035671E-05  5.664746E-15  5.552156E-14
      1309  19  1.120938E-04  9.000005E+00 -1.471603E-07  6.501210E-06 -3.766741E-08 -3.354162E-08
      1309  20  1.146587E-04  9.000006E+00  7.786598E-08  1.037769E-05 -1.742792E-08  1.137851E-08
      1309  21  1.170210E-04  9.000006E+00  4.351304E-08  1.490911E-05  2.811575E-09  4.677492E-08
      1309  22  1.152353E-04  9.000004E+00 -5.897205E-08  5.562463E-06 -5.451260E-08 -1.351552E-08
      1309  23  1.186373E-04  9.000004E+00  1.992756E-07  8.828632E-06 -3.478626E-08  1.185608E-07
      1309  24  1.218272E-04  9.000004E+00  1.759220E-07  1.274973E-05 -1.505990E-08  2.411135E-07
      1309  25  1.174912E-04  9.000002E+00 -1.807569E-07  4.557949E-06 -8.017780E-08  6.510545E-09
      1309  26  1.217126E-04  9.000002E+00  6.955203E-08  7.213802E-06 -6.096462E-08  2.257431E-07
      1309  27  1.257125E-04  9.000002E+00  1.603782E-08  1.052459E-05 -4.175142E-08  4.354521E-07
      1310   1  1.191919E-04  9.000006E+00  3.542935E-08  1.773081E-05  1.377996E-07 -2.264912E-08
      1310   2  1.237043E-04  9.000006E+00 -2.599808E-07  2.175133E-05 -3.812920E-08  1.292698E-07
      1310   3  1.279368E-04  9.000006E+00 -9.268420E-07  2.709539E-05 -2.140580E-07  3.427877E-07
      1310   4  1.247386E-04  9.000005E+00  2.048787E-07  1.513890E-05  1.548101E-07 -1.313621E-07
      1310   5  1.309947E-04  9.000005E+00 -2.679528E-08  1.853345E-05 -1.789471E-07  4.019644E-07
      1310   6  1.369093E-04  9.000004E+00 -7.736511E-07  2.325155E-05 -5.127043E-07  9.968898E-07
      1310   7  1.293836E-04  9.000002E+00  1.223414E-07  1.244527E-05  1.341069E-07 -2.400752E-07
      1310   8  1.374588E-04  9.000003E+00  1.304008E-07  1.521386E-05 -3.574787E-07  6.746588E-07
      1310   9  1.451310E-04  9.000002E+00 -5.204524E-07  1.930600E-05 -8.490643E-07  1.650992E-06
      1310  10  1.188730E-04  9.000006E+00 -1.257470E-07  1.759745E-05 -7.589024E-15 -3.472875E-15
      1310  11  1.238993E-04  9.000007E+00  9.278213E-08  2.147649E-05 -6.578313E-15 -2.921198E-14
      1310  12  1.286458E-04  9.000008E+00 -6.013984E-08  2.667908E-05 -2.081763E-15 -3.451857E-14
      1310  13  1.241721E-04  9.000004E+00 -6.240090E-08  1.517684E-05 -4.809042E-15  2.186690E-14
      1310  14  1.309422E-04  9.000005E+00  2.198644E-07  1.842993E-05 -8.562510E-15 -2.950728E-14
      1310  15  1.373707E-04  9.000006E+00 -1.305206E-08  2.300656E-05  8.188457E-16 -2.626761E-14
      1310  16  1.285696E-04  9.000002E+00 -2.510414E-07  1.265453E-05 -1.502082E-14  4.907970E-14
      1310  17  1.371587E-04  9.000003E+00  2.709573E-07  1.528165E-05 -1.494515E-14 -2.676862E-14
      1310  18  1.453449E-04  9.000004E+00  1.340434E-07  1.923232E-05 -6.548338E-15 -2.617174E-14
      1310  19  1.191919E-04  9.000006E+00  3.542941E-08  1.773081E-05 -1.377996E-07  2.264907E-08
      1310  20  1.237043E-04  9.000006E+00 -2.599809E-07  2.175133E-05  3.812918E-08 -1.292699E-07
      1310  21  1.279368E-04  9.000006E+00 -9.268421E-07  2.709539E-05  2.140580E-07 -3.427877E-07
      1310  22  1.247386E-04  9.000005E+00  2.048787E-07  1.513890E-05 -1.548101E-07  1.313622E-07
      1310  23  1.309947E-04  9.000005E+00 -2.679533E-08  1.853345E-05  1.789471E-07 -4.019644E-07
      1310  24  1.369093E-04  9.000004E+00 -7.736510E-07  2.325155E-05  5.127043E-07 -9.968898E-07
      1310  25  1.293836E-04  9.000002E+00  1.223414E-07  1.244527E-05 -1.341070E-07  2.400752E-07
      1310  26  1.374588E-04  9.000003E+00  1.304008E-07  1.521386E-05  3.574787E-07 -6.746589E-07
      1310  27  1.451310E-04  9.000002E+00 -5.204523E-07  1.930600E-05  8.490643E-07 -1.650992E-06
      1311   1  1.314936E-04  9.000007E+00 -5.625357E-07  3.031874E-05 -2.741754E-07  2.535811E-07
      1311   2  1.379711E-04  9.000009E+00  1.085300E-06  3.335422E-05  7.012943E-08 -3.955847E-07
      1311   3  1.443571E-04  9.000011E+00  3.027110E-06  3.925036E-05  4.144343E-07 -1.183138E-06
      1311   4  1.406954E-04  9.000004E+00 -1.023144E-06  2.663728E-05 -2.850763E-07  5.614908E-07
      1311   5  1.510003E-04  9.000007E+00  8.647235E-07  2.929648E-05  7.302857E-07 -1.658770E-06
      1311   6  1.613520E-04  9.000009E+00  3.369469E-06  3.481635E-05  1.745648E-06 -4.017418E-06
      1311   7  1.495909E-04  9.000002E+00 -1.367376E-06  2.274454E-05 -1.012049E-07  8.694004E-07
      1311   8  1.633336E-04  9.000004E+00 -1.484145E-07  2.502747E-05  1.585214E-06 -2.921956E-06
      1311   9  1.772615E-04  9.000006E+00  2.010329E-06  3.017107E-05  3.271633E-06 -6.851699E-06
      1311  10  1.326279E-04  9.000008E+00  2.051420E-07  2.970548E-05 -2.516257E-15 -1.803870E-14
      1311  11  1.368997E-04  9.000006E+00 -3.527420E-07  3.329614E-05 -7.698295E-16 -1.144278E-14
      1311  12  1.410800E-04  9.000002E+00 -6.166514E-07  3.974748E-05  8.533429E-15 -3.870286E-14
      1311  13  1.428013E-04  9.000006E+00  1.609251E-07  2.528878E-05 -2.803586E-15 -1.532548E-14
      1311  14  1.509005E-04  9.000004E+00 -1.569273E-07  2.850317E-05 -1.192735E-14 -4.713416E-15
      1311  15  1.590465E-04  9.000001E+00  1.420983E-07  3.457823E-05 -4.904030E-16 -5.924023E-14
      1311  16  1.526684E-04  9.000004E+00  2.330838E-07  2.066080E-05 -1.081478E-14  9.673012E-15
      1311  17  1.642054E-04  9.000001E+00 -7.536743E-07  2.349892E-05 -1.915028E-14  5.049928E-15
      1311  18  1.759275E-04  8.999998E+00 -8.006508E-07  2.919770E-05  3.438342E-17 -9.688679E-14
      1311  19  1.314936E-04  9.000007E+00 -5.625357E-07  3.031874E-05  2.741754E-07 -2.535812E-07
      1311  20  1.379711E-04  9.000009E+00  1.085300E-06  3.335422E-05 -7.012943E-08  3.955847E-07
      1311  21  1.443571E-04  9.000011E+00  3.027110E-06  3.925036E-05 -4.144343E-07  1.183138E-06
      1311  22  1.406954E-04  9.000004E+00 -1.023144E-06  2.663728E-05  2.850763E-07 -5.614908E-07
      1311  23  1.510003E-04  9.000007E+00  8.647236E-07  2.929648E-05 -7.302857E-07  1.658770E-06
      1311  24  1.613520E-04  9.000009E+00  3.369469E-06  3.481635E-05 -1.745648E-06  4.017418E-06
      1311  25  1.495909E-04  9.000002E+00 -1.367376E-06  2.274454E-05  1.012049E-07 -8.694004E-07
      1311  26  1.633336E-04  9.000004E+00 -1.484144E-07  2.502747E-05 -1.585214E-06  2.921956E-06
      1311  27  1.772615E-04  9.000006E+00  2.010329E-06  3.017107E-05 -3.271633E-06  6.851699E-06
      1312   1  1.470388E-04  9.000010E+00  2.048671E-06  4.152802E-05  1.370731E-06 -1.051940E-06
      1312   2  1.473387E-04  8.999998E+00 -4.675678E-06  4.117705E-05  2.230701E-07  1.043700E-06
      1312   3  1.457139E-04  8.999981E+00 -1.241216E-05  4.330852E-05 -9.245905E-07  4.328959E-06
      1312   4  1.680374E-04  9.000009E+00  3.794609E-06  3.636625E-05  1.548624E-06 -2.408522E-06
      1312   5  1.717250E-04  8.999998E+00 -3.047315E-06  3.692333E-05 -3.424018E-06  6.336310E-06
      1312   6  1.722981E-04  8.999981E+00 -1.367715E-05  3.996287E-05 -8.396660E-06  1.627076E-05
      1312   7  1.917474E-04  9.000009E+00  5.940871E-06  3.114125E-05  1.103578E-06 -3.765105E-06
      1312   8  2.000684E-04  9.000000E+00  1.888419E-06  3.260640E-05 -7.694045E-06  1.162892E-05
      1312   9  2.040854E-04  8.999983E+00 -8.727721E-06  3.655399E-05 -1.649167E-05  2.821256E-05
      1312  10  1.440057E-04  9.000005E+00 -3.803884E-07  4.186148E-05  2.337733E-14 -4.842012E-14
      1312  11  1.531876E-04  9.000014E+00  1.777216E-06  3.819567E-05  8.409325E-15 -2.951437E-14
      1312  12  1.604447E-04  9.000018E+00  2.922691E-06  3.701230E-05  1.720872E-15 -3.232659E-15
      1312  13  1.592033E-04  9.000001E+00 -1.120583E-06  3.966036E-05  1.765099E-14 -7.113307E-14
      1312  14  1.717728E-04  9.000011E+00  9.194461E-07  3.690261E-05  7.802556E-15 -1.077174E-14
      1312  15  1.812279E-04  9.000015E+00 -8.284334E-07  3.662730E-05  1.430760E-15 -3.128793E-15
      1312  16  1.771123E-04  8.999999E+00 -1.460453E-06  3.739602E-05  1.787651E-14 -9.075156E-14
      1312  17  1.943153E-04  9.000011E+00  3.369048E-06  3.554632E-05  1.634629E-14 -3.655400E-15
      1312  18  2.072142E-04  9.000015E+00  1.634861E-06  3.617907E-05  1.408789E-14 -2.960200E-14
      1312  19  1.470388E-04  9.000010E+00  2.048671E-06  4.152802E-05 -1.370731E-06  1.051939E-06
      1312  20  1.473387E-04  8.999998E+00 -4.675678E-06  4.117705E-05 -2.230700E-07 -1.043700E-06
      1312  21  1.457139E-04  8.999981E+00 -1.241216E-05  4.330852E-05  9.245905E-07 -4.328959E-06
      1312  22  1.680374E-04  9.000009E+00  3.794609E-06  3.636625E-05 -1.548624E-06  2.408522E-06
      1312  23  1.717250E-04  8.999998E+00 -3.047315E-06  3.692333E-05  3.424018E-06 -6.336310E-06
      1312  24  1.722981E-04  8.999981E+00 -1.367715E-05  3.996287E-05  8.396660E-06 -1.627076E-05
      1312  25  1.917474E-04  9.000009E+00  5.940871E-06  3.114125E-05 -1.103578E-06  3.765105E-06
      1312  26  2.000684E-04  9.000000E+00  1.888419E-06  3.260640E-05  7.694045E-06 -1.162892E-05
      1312  27  2.040854E-04  8.999983E+00 -8.727721E-06  3.655399E-05  1.649167E-05 -2.821256E-05
      1313   1  1.447942E-04  8.999987E+00 -8.370498E-06  4.095985E-05 -4.046534E-06  4.886592E-06
      1313   2  1.612868E-04  9.000009E+00  2.244561E-05  2.371171E-05 -3.519430E-06 -3.091520E-06
      1313   3  1.638537E-04  8.999988E+00  4.937458E-05  7.535323E-06 -2.992326E-06 -2.011887E-05
      1313   4  1.657008E-04  8.999984E+00 -1.750343E-05  4.718003E-05 -4.441482E-06  1.070976E-05
      1313   5  1.855112E-04  9.000013E+00  1.248274E-05  2.338746E-05  1.294679E-05 -2.494419E-05
      1313   6  2.004452E-04  9.000009E+00  5.969665E-05  6.666356E-07  3.033507E-05 -6.964737E-05
      1313   7  1.883296E-04  8.999982E+00 -2.464122E-05  5.465002E-05 -1.753034E-06  1.653292E-05
      1313   8  2.052911E-04  9.000012E+00 -9.874182E-06  2.431301E-05  3.249641E-05 -4.679686E-05
      1313   9  2.264255E-04  9.000018E+00  4.323549E-05 -4.952253E-06  6.674585E-05 -1.191759E-04
      1313  10  1.577204E-04  9.000006E+00  1.336975E-06  3.540109E-05 -3.696353E-15  4.374326E-15
      1313  11  1.361400E-04  8.999939E+00 -5.919873E-06  3.419230E-05 -3.438256E-15 -7.505702E-15
      1313  12  1.006339E-04  8.999830E+00 -1.706386E-05  3.405525E-05 -1.174826E-14 -1.402049E-14
      1313  13  2.066957E-04  9.000015E+00  4.233551E-06  2.893029E-05 -3.906330E-15 -1.021951E-14
      1313  14  1.884332E-04  8.999955E+00 -3.853238E-06  2.117706E-05 -3.142779E-15  6.951442E-15
      1313  15  1.652943E-04  8.999862E+00  5.287718E-06  1.449558E-05 -1.311358E-15 -4.755818E-15
      1313  16  2.573934E-04  9.000025E+00  9.125262E-06  2.370929E-05  4.658697E-15 -3.021962E-14
      1313  17  2.362820E-04  8.999967E+00 -1.418065E-05  9.411623E-06 -3.494300E-15  1.173566E-14
      1313  18  2.193434E-04  8.999884E+00  8.560619E-07 -3.814300E-06  2.178516E-15 -2.214090E-14
      1313  19  1.447942E-04  8.999987E+00 -8.370498E-06  4.095985E-05  4.046534E-06 -4.886592E-06
      1313  20  1.612868E-04  9.000009E+00  2.244561E-05  2.371171E-05  3.519430E-06  3.091520E-06
      1313  21  1.638537E-04  8.999988E+00  4.937458E-05  7.535323E-06  2.992326E-06  2.011887E-05
      1313  22  1.657008E-04  8.999984E+00 -1.750343E-05  4.718003E-05  4.441482E-06 -1.070976E-05
      1313  23  1.855112E-04  9.000013E+00  1.248274E-05  2.338746E-05 -1.294679E-05  2.494419E-05
      1313  24  2.004452E-04  9.000009E+00  5.969665E-05  6.666356E-07 -3.033507E-05  6.964737E-05
      1313  25  1.883296E-04  8.999982E+00 -2.464122E-05  5.465002E-05  1.753034E-06 -1.653292E-05
      1313  26  2.052911E-04  9.000012E+00 -9.874182E-06  2.431301E-05 -3.249641E-05  4.679686E-05
      1313  27  2.264255E-04  9.000018E+00  4.323549E-05 -4.952253E-06 -6.674585E-05  1.191759E-04
      1314   1  1.137831E-04  8.999945E+00  1.760429E-05 -2.830548E-05  2.527163E-05 -1.941206E-05
      1314   2  1.104956E-04  8.999710E+00 -7.433395E-05 -1.977141E-05  1.887910E-05  1.202842E-05
      1314   3 -3.768045E-05  8.999098E+00 -2.716238E-04  1.482397E-05  1.248656E-05  5.298546E-05
      1314   4  2.025972E-04  8.999982E+00  5.738464E-05 -2.982517E-05  3.867534E-05 -4.263798E-05
      1314   5  2.247314E-04  8.999722E+00 -3.714974E-05 -4.440831E-05 -6.651680E-05  1.068669E-04
      1314   6  9.246040E-05  8.999075E+00 -2.592410E-04 -3.293013E-05 -1.717089E-04  2.658884E-04
      1314   7  3.451482E-04  9.000039E+00  1.056737E-04 -3.758428E-05  4.203688E-05 -6.586391E-05
      1314   8  4.127885E-04  8.999773E+00  5.540663E-05 -7.528463E-05 -1.619549E-04  2.017054E-04
      1314   9  3.165069E-04  8.999111E+00 -1.446227E-04 -8.692366E-05 -3.659466E-04  4.787913E-04
      1314  10  9.014664E-05  8.999869E+00 -1.235754E-05 -9.544499E-06 -1.036905E-14 -1.272446E-14
      1314  11  2.422766E-04  8.999997E+00  5.112157E-05 -7.867884E-05 -4.423297E-16 -2.479529E-14
      1314  12  2.495178E-04  8.999747E+00  9.249065E-06 -1.217519E-04  4.301410E-15 -3.926356E-14
      1314  13  4.304102E-05  8.999848E+00 -3.082850E-05  4.074160E-05 -6.676985E-15 -1.425246E-14
      1314  14  2.205926E-04  8.999950E+00  3.005447E-05 -5.150995E-05 -3.634754E-15 -1.027838E-14
      1314  15  2.437389E-04  8.999666E+00 -3.661948E-05 -1.177002E-04  1.249754E-14 -5.176325E-14
      1314  16  4.967237E-05  8.999846E+00 -4.079074E-05  8.478827E-05  2.475449E-17 -1.779570E-14
      1314  17  2.727299E-04  8.999943E+00  6.435954E-05 -3.058049E-05 -2.868888E-15 -1.206927E-14
      1314  18  3.318657E-04  8.999643E+00  1.974756E-05 -1.198879E-04 -1.651566E-15 -7.087644E-14
      1314  19  1.137831E-04  8.999945E+00  1.760429E-05 -2.830548E-05 -2.527163E-05  1.941206E-05
      1314  20  1.104956E-04  8.999710E+00 -7.433395E-05 -1.977141E-05 -1.887910E-05 -1.202842E-05
      1314  21 -3.768045E-05  8.999098E+00 -2.716238E-04  1.482397E-05 -1.248656E-05 -5.298546E-05
      1314  22  2.025972E-04  8.999982E+00  5.738464E-05 -2.982517E-05 -3.867534E-05  4.263798E-05
      1314  23  2.247314E-04  8.999722E+00 -3.714974E-05 -4.440831E-05  6.651680E-05 -1.068669E-04
      1314  24  9.246040E-05  8.999075E+00 -2.592410E-04 -3.293013E-05  1.717089E-04 -2.658884E-04
      1314  25  3.451482E-04  9.000039E+00  1.056737E-04 -3.758428E-05 -4.203688E-05  6.586391E-05
      1314  26  4.127885E-04  8.999773E+00  5.540663E-05 -7.528463E-05  1.619549E-04 -2.017054E-04
      1314  27  3.165069E-04  8.999111E+00 -1.446227E-04 -8.692366E-05  3.659466E-04 -4.787913E-04
      1315   1 -1.210241E-05  8.999133E+00 -2.385603E-04  2.505781E-04  2.686239E-05  5.985577E-05
      1315   2  5.978472E-05  8.999744E+00 -2.257693E-05  1.492334E-04 -6.503375E-06  3.570179E-05
      1315   3 -6.143873E-05  8.999874E+00  2.933573E-05  1.240543E-04 -3.986914E-05  1.051943E-05
      1315   4 -3.329567E-04  8.998934E+00 -4.233466E-04  4.654328E-04 -1.597568E-04  2.639355E-04
      1315   5 -7.272711E-05  8.999730E+00 -9.541424E-05  2.122620E-04 -7.253586E-05  9.139612E-05
      1315   6 -4.579761E-06  9.000048E+00  7.084694E-05  3.525684E-05  1.468503E-05 -8.217161E-05
      1315   7 -7.608660E-04  8.998708E+00 -5.906085E-04  6.986952E-04 -3.376100E-04  4.680152E-04
      1315   8 -3.298258E-04  8.999672E+00 -1.916347E-04  2.936985E-04 -1.298025E-04  1.470905E-04
      1315   9 -8.983945E-05  9.000159E+00  4.806750E-05 -3.513273E-05  7.800509E-05 -1.748626E-04
      1315  10  2.254364E-04  8.999744E+00  1.583538E-05  1.045222E-04  2.612698E-15 -3.190013E-14
      1315  11  1.106667E-04  8.999919E+00  4.516193E-05  9.400316E-05 -6.442247E-15 -3.689685E-15
      1315  12 -1.972135E-04  8.999614E+00 -8.958222E-05  1.596496E-04 -1.726954E-14  9.269875E-15
      1315  13  6.352701E-05  8.999613E+00 -1.008317E-04  2.571579E-04  1.373545E-14 -4.791917E-14
      1315  14  1.370998E-04  8.999973E+00  4.044385E-05  9.481282E-05  5.184878E-15  7.325333E-15
      1315  15  1.859029E-05  8.999855E+00  2.004822E-05  8.633284E-06 -1.926060E-14 -6.452524E-15
      1315  16 -2.054375E-04  8.999455E+00 -1.999744E-04  4.282015E-04 -2.734097E-15 -5.794253E-14
      1315  17  3.894592E-05  8.999984E+00  1.234263E-05  1.140303E-04 -8.136891E-15  9.239819E-15
      1315  18  9.227546E-05  9.000035E+00  6.538801E-05 -1.239752E-04 -1.692960E-14 -2.137542E-14
      1315  19 -1.210241E-05  8.999133E+00 -2.385603E-04  2.505781E-04 -2.686239E-05 -5.985577E-05
      1315  20  5.978472E-05  8.999744E+00 -2.257693E-05  1.492334E-04  6.503375E-06 -3.570179E-05
      1315  21 -6.143873E-05  8.999874E+00  2.933573E-05  1.240543E-04  3.986914E-05 -1.051943E-05
      1315  22 -3.329567E-04  8.998934E+00 -4.233466E-04  4.654328E-04  1.597568E-04 -2.639355E-04
      1315  23 -7.272711E-05  8.999730E+00 -9.541424E-05  2.122620E-04  7.253586E-05 -9.139612E-05
      1315  24 -4.579761E-06  9.000048E+00  7.084694E-05  3.525684E-05 -1.468503E-05  8.217161E-05
      1315  25 -7.608660E-04  8.998708E+00 -5.906085E-04  6.986952E-04  3.376100E-04 -4.680152E-04
      1315  26 -3.298258E-04  8.999672E+00 -1.916347E-04  2.936985E-04  1.298025E-04 -1.470905E-04
      1315  27 -8.983945E-05  9.000159E+00  4.806750E-05 -3.513273E-05 -7.800509E-05  1.748626E-04
      1401   1 -2.005900E-04  8.999879E+00 -9.737010E-05 -7.737005E-05 -9.100821E-05 -1.610064E-04
      1401   2 -2.684087E-04  8.999861E+00 -1.002756E-04 -8.548596E-05  1.169241E-04  1.301013E-04
      1401   3 -1.138208E-04  9.000347E+00  1.347379E-04 -1.218034E-04  3.248564E-04  4.641705E-04
      1401   4  3.229294E-07  8.999947E+00 -6.816545E-05 -3.310595E-05 -6.159632E-05 -8.907803E-05
      1401   5 -6.582757E-05  8.999960E+00  2.555789E-05 -4.840023E-05  2.617799E-05  5.785931E-05
      1401   6  4.746689E-05  9.000434E+00  2.569564E-04 -9.189606E-05  1.139523E-04  2.477583E-04
      1401   7  7.760591E-05  8.999968E+00 -6.931137E-05  1.147534E-05 -2.425481E-05 -1.714970E-05
      1401   8 -2.735661E-06  8.999996E+00  8.403586E-05 -1.099730E-05 -5.663847E-05 -1.438265E-05
      1401   9  5.340612E-05  9.000442E+00  2.748146E-04 -6.167150E-05 -8.902214E-05  3.134601E-05
      1401  10  1.742435E-04  9.000220E+00  1.171513E-04  1.024351E-04 -5.113202E-15 -5.454797E-14
      1401  11 -7.360837E-05  8.999782E+00 -6.578739E-05 -1.190987E-05 -7.856941E-15 -2.165425E-15
      1401  12 -9.905372E-05  8.999847E+00 -1.080716E-05 -1.544564E-04  7.318549E-15  5.616854E-15
      1401  13  1.892556E-04  9.000207E+00  6.668419E-05  8.668815E-05 -9.575092E-15 -4.882133E-14
      1401  14 -5.692817E-05  8.999800E+00 -1.962571E-05 -3.483522E-05 -8.792803E-15 -1.347092E-14
      1401  15 -1.236669E-04  8.999854E+00  3.173961E-05 -1.845601E-04 -5.669004E-15 -4.030554E-15
      1401  16  8.063764E-05  9.000149E+00 -1.413355E-05  7.125836E-05 -6.765470E-15 -1.515889E-14
      1401  17 -1.797372E-04  8.999757E+00 -4.081955E-05 -5.744337E-05 -1.229109E-14 -8.520810E-16
      1401  18 -3.036286E-04  8.999783E+00 -3.007408E-05 -2.143466E-04 -1.728636E-14  1.237958E-15
      1401  19 -2.005900E-04  8.999879E+00 -9.737010E-05 -7.737005E-05  9.100821E-05  1.610064E-04
      1401  20 -2.684087E-04  8.999861E+00 -1.002756E-04 -8.548596E-05 -1.169241E-04 -1.301013E-04
      1401  21 -1.138208E-04  9.000347E+00  1.347379E-04 -1.218034E-04 -3.248564E-04 -4.641705E-04
      1401  22  3.229294E-07  8.999947E+00 -6.816545E-05 -3.310595E-05  6.159632E-05  8.907803E-05
      1401  23 -6.582757E-05  8.999960E+00  2.555789E-05 -4.840023E-05 -2.617799E-05 -5.785931E-05
      1401  24  4.746689E-05  9.000434E+00  2.569564E-04 -9.189606E-05 -1.139523E-04 -2.477583E-04
      1401  25  7.760591E-05  8.999968E+00 -6.931137E-05  1.147534E-05  2.425481E-05  1.714970E-05
      1401  26 -2.735661E-06  8.999996E+00  8.403586E-05 -1.099730E-05  5.663847E-05  1.438265E-05
      1401  27  5.340612E-05  9.000442E+00  2.748146E-04 -6.167150E-05  8.902214E-05 -3.134601E-05
      1402   1  9.571080E-04  9.000764E+00  5.840490E-04  6.477186E-04  3.597437E-04  4.820692E-04
      1402   2  5.185199E-04  9.000045E+00  1.889979E-04  2.401439E-04  1.678785E-04  2.023793E-04
      1402   3  3.189238E-04  8.999885E+00  3.102242E-05  1.207971E-05 -2.398662E-05 -4.539363E-05
      1402   4  4.090807E-04  9.000550E+00  3.984666E-04  4.320041E-04  1.335278E-04  2.605253E-04
      1402   5  2.834236E-04  8.999976E+00  1.239368E-04  1.455641E-04  8.213522E-05  1.073709E-04
      1402   6  3.648416E-04  8.999929E+00  1.200994E-05  3.863446E-05  3.074261E-05 -1.386661E-05
      1402   7 -8.789372E-05  9.000347E+00  1.953690E-04  2.191104E-04 -9.916313E-05  3.898143E-05
      1402   8  1.123305E-04  8.999930E+00  7.157793E-05  5.380493E-05 -1.008321E-05  1.236248E-05
      1402   9  4.877130E-04  9.000009E+00  3.591700E-05  6.800994E-05  7.899670E-05  1.766041E-05
      1402  10  4.318373E-04  9.000020E+00  2.032162E-04  3.694734E-04  1.632274E-14 -2.688649E-16
      1402  11  1.501707E-04  8.999667E+00 -3.491347E-05  5.528435E-05 -2.720462E-15 -1.055214E-14
      1402  12  1.074960E-04  8.999874E+00 -3.596753E-05 -7.939430E-05 -1.072791E-14 -5.118258E-14
      1402  13  4.723473E-05  8.999876E+00  8.767287E-05  2.060661E-04  9.240696E-15  4.414188E-15
      1402  14  7.849914E-05  8.999668E+00 -2.993541E-05  1.301164E-05 -6.438851E-15 -1.208400E-14
      1402  15  3.168386E-04  8.999987E+00  1.505916E-05 -5.324008E-07 -1.063182E-14 -3.394146E-14
      1402  16 -2.863149E-04  8.999743E+00 -4.538554E-05  4.547952E-05 -5.848871E-15  4.505932E-15
      1402  17  7.083078E-05  8.999692E+00 -1.225513E-05 -2.644034E-05 -9.404682E-15 -2.214107E-15
      1402  18  6.031347E-04  9.000137E+00  1.090054E-04  8.115023E-05  4.437273E-15 -3.774531E-14
      1402  19  9.571080E-04  9.000764E+00  5.840490E-04  6.477186E-04 -3.597437E-04 -4.820692E-04
      1402  20  5.185199E-04  9.000045E+00  1.889979E-04  2.401439E-04 -1.678785E-04 -2.023793E-04
      1402  21  3.189238E-04  8.999885E+00  3.102242E-05  1.207971E-05  2.398662E-05  4.539363E-05
      1402  22  4.090807E-04  9.000550E+00  3.984666E-04  4.320041E-04 -1.335278E-04 -2.605253E-04
      1402  23  2.834236E-04  8.999976E+00  1.239368E-04  1.455641E-04 -8.213522E-05 -1.073709E-04
      1402  24  3.648416E-04  8.999929E+00  1.200994E-05  3.863446E-05 -3.074261E-05  1.386661E-05
      1402  25 -8.789372E-05  9.000347E+00  1.953690E-04  2.191104E-04  9.916313E-05 -3.898143E-05
      1402  26  1.123305E-04  8.999930E+00  7.157793E-05  5.380493E-05  1.008321E-05 -1.236248E-05
      1402  27  4.877130E-04  9.000009E+00  3.591700E-05  6.800994E-05 -7.899670E-05 -1.766041E-05
      1403   1  1.950012E-04  8.999895E+00 -3.463284E-05 -4.208384E-05 -6.735981E-05 -1.006341E-04
      1403   2  1.880185E-04  8.999918E+00 -5.961150E-05 -4.228943E-05 -3.445608E-05 -5.315908E-05
      1403   3  2.222965E-04  9.000006E+00 -1.174195E-05 -4.910301E-05 -1.552351E-06  1.002089E-05
      1403   4  2.752263E-04  8.999946E+00 -5.571837E-05 -3.371689E-05 -2.949259E-05 -4.197060E-05
      1403   5  2.655176E-04  8.999953E+00 -4.519757E-05 -2.636458E-05 -1.807458E-05 -2.777694E-05
      1403   6  2.813647E-04  9.000008E+00  1.526456E-06 -2.562025E-05 -6.656564E-06  2.121721E-06
      1403   7  3.659942E-04  9.000005E+00 -5.787446E-05 -3.030829E-05  1.081606E-05  1.669286E-05
      1403   8  3.486768E-04  8.999991E+00 -2.324756E-05 -1.539807E-05  7.483606E-07 -2.394794E-06
      1403   9  3.412100E-04  9.000010E+00  1.093758E-05 -7.095839E-06 -9.319343E-06 -5.777447E-06
      1403  10  3.282422E-04  9.000094E+00  6.504641E-05  2.576472E-05 -3.649926E-14 -4.309703E-14
      1403  11  2.783248E-04  9.000017E+00 -2.866956E-06  3.555466E-06 -3.196070E-14 -1.630724E-15
      1403  12  2.696681E-04  9.000004E+00  2.067896E-06 -2.526177E-05 -1.036731E-14 -4.935621E-14
      1403  13  3.699609E-04  9.000128E+00  2.745813E-05  1.982010E-05 -2.027496E-14 -3.230557E-14
      1403  14  3.173175E-04  9.000035E+00 -4.955769E-06  5.168755E-06 -1.345666E-14 -1.532862E-14
      1403  15  2.902299E-04  8.999991E+00 -1.166448E-06 -1.609058E-05 -5.885730E-15 -8.465890E-14
      1403  16  4.222224E-04  9.000171E+00  8.799302E-06  8.917133E-06  1.225797E-14 -2.915965E-14
      1403  17  3.619703E-04  9.000057E+00  4.914997E-07  1.823691E-06  6.168212E-15 -1.171973E-14
      1403  18  3.115688E-04  8.999976E+00 -8.258072E-06 -1.187774E-05 -8.314374E-15 -1.008972E-13
      1403  19  1.950012E-04  8.999895E+00 -3.463284E-05 -4.208384E-05  6.735981E-05  1.006341E-04
      1403  20  1.880185E-04  8.999918E+00 -5.961150E-05 -4.228943E-05  3.445608E-05  5.315908E-05
      1403  21  2.222965E-04  9.000006E+00 -1.174195E-05 -4.910301E-05  1.552351E-06 -1.002089E-05
      1403  22  2.752263E-04  8.999946E+00 -5.571837E-05 -3.371689E-05  2.949259E-05  4.197060E-05
      1403  23  2.655176E-04  8.999953E+00 -4.519757E-05 -2.636458E-05  1.807458E-05  2.777694E-05
      1403  24  2.813647E-04  9.000008E+00  1.526455E-06 -2.562025E-05  6.656564E-06 -2.121721E-06
      1403  25  3.659942E-04  9.000005E+00 -5.787446E-05 -3.030829E-05 -1.081606E-05 -1.669286E-05
      1403  26  3.486768E-04  8.999991E+00 -2.324756E-05 -1.539807E-05 -7.483606E-07  2.394794E-06
      1403  27  3.412100E-04  9.000010E+00  1.093758E-05 -7.095839E-06  9.319343E-06  5.777447E-06
      1404   1  2.494371E-04  9.000043E+00  2.115262E-05 -2.686918E-05  1.574700E-05  2.700031E-05
      1404   2  2.244312E-04  9.000020E+00  1.286281E-05 -2.375623E-05  7.818270E-06  1.213107E-05
      1404   3  1.992624E-04  8.999999E+00  1.629558E-06 -2.700614E-05 -1.104584E-07 -2.585381E-06
      1404   4  2.749356E-04  9.000026E+00  1.738337E-05 -1.752559E-05  4.089789E-06  1.189751E-05
      1404   5  2.444285E-04  9.000011E+00  9.995297E-06 -1.433637E-05  2.971992E-06  5.554350E-06
      1404   6  2.136056E-04  8.999999E+00 -6.927162E-07 -1.750999E-05  1.854194E-06 -6.360212E-07
      1404   7  2.963672E-04  9.000005E+00  6.006597E-06 -6.314107E-06 -8.498551E-06 -3.205295E-06
      1404   8  2.622211E-04  9.000001E+00  3.865539E-06 -3.048608E-06 -2.805418E-06 -1.022372E-06
      1404   9  2.276065E-04  8.999998E+00 -1.931961E-06 -6.145962E-06  2.887716E-06  1.313338E-06
      1404  10  2.172077E-04  8.999991E+00 -4.348228E-06 -4.148601E-05  2.070901E-14 -4.558367E-14
      1404  11  2.038887E-04  8.999995E+00 -9.511557E-07 -3.332216E-05  1.557969E-14  1.723541E-14
      1404  12  1.904068E-04  9.000001E+00 -4.975181E-07 -3.152116E-05  1.422404E-14 -2.005585E-14
      1404  13  2.515453E-04  8.999977E+00 -4.329299E-06 -2.824679E-05 -5.650814E-16 -7.409209E-14
      1404  14  2.327250E-04  8.999989E+00 -3.048754E-08 -2.000667E-05 -3.526364E-15 -4.680797E-15
      1404  15  2.135891E-04  9.000004E+00  9.683854E-07 -1.812939E-05 -1.500807E-15 -4.563602E-14
      1404  16  2.818160E-04  8.999960E+00 -1.191790E-05 -1.313968E-05 -3.207449E-14 -8.071715E-14
      1404  17  2.593568E-04  8.999983E+00 -2.372068E-06 -4.823279E-06 -2.975918E-14  1.386567E-14
      1404  18  2.364291E-04  9.000007E+00  3.517318E-06 -2.869730E-06 -1.203616E-14 -5.612215E-14
      1404  19  2.494371E-04  9.000043E+00  2.115262E-05 -2.686918E-05 -1.574700E-05 -2.700031E-05
      1404  20  2.244312E-04  9.000020E+00  1.286281E-05 -2.375623E-05 -7.818270E-06 -1.213107E-05
      1404  21  1.992624E-04  8.999999E+00  1.629558E-06 -2.700614E-05  1.104584E-07  2.585381E-06
      1404  22  2.749356E-04  9.000026E+00  1.738337E-05 -1.752559E-05 -4.089789E-06 -1.189751E-05
      1404  23  2.444285E-04  9.000011E+00  9.995297E-06 -1.433637E-05 -2.971992E-06 -5.554350E-06
      1404  24  2.136056E-04  8.999999E+00 -6.927162E-07 -1.750999E-05 -1.854194E-06  6.360211E-07
      1404  25  2.963672E-04  9.000005E+00  6.006597E-06 -6.314106E-06  8.498551E-06  3.205295E-06
      1404  26  2.622211E-04  9.000001E+00  3.865539E-06 -3.048608E-06  2.805417E-06  1.022372E-06
      1404  27  2.276065E-04  8.999998E+00 -1.931961E-06 -6.145962E-06 -2.887716E-06 -1.313339E-06
      1405   1  1.806651E-04  8.999992E+00 -5.085829E-06 -2.744256E-05 -3.070380E-06 -6.034955E-06
      1405   2  1.681234E-04  8.999997E+00 -3.292017E-06 -2.220374E-05 -1.623354E-06 -2.942076E-06
      1405   3  1.560181E-04  9.000002E+00 -4.515936E-07 -1.927351E-05 -1.763286E-07  6.612386E-07
      1405   4  1.977193E-04  8.999995E+00 -4.595536E-06 -1.640462E-05 -5.658089E-07 -2.240259E-06
      1405   5  1.819099E-04  8.999999E+00 -1.937649E-06 -1.265282E-05 -6.125144E-07 -1.331975E-06
      1405   6  1.660264E-04  9.000002E+00  5.758337E-07 -1.120961E-05 -6.592200E-07  8.674355E-08
      1405   7  2.132258E-04  8.999999E+00 -2.783536E-06 -5.565046E-06  2.188575E-06  1.554438E-06
      1405   8  1.936491E-04  9.000000E+00 -4.273681E-07 -3.300273E-06  6.481383E-07  2.781258E-07
      1405   9  1.734878E-04  9.000000E+00  5.933791E-07 -3.344082E-06 -8.922983E-07 -4.877514E-07
      1405  10  1.883061E-04  9.000005E+00  1.298280E-06 -2.318936E-05 -3.862604E-15 -3.197693E-14
      1405  11  1.727447E-04  9.000003E+00  7.234225E-08 -1.926225E-05 -8.273977E-15 -3.227150E-15
      1405  12  1.576196E-04  9.000002E+00 -1.069844E-07 -1.764373E-05 -2.545075E-15 -4.684537E-14
      1405  13  2.030648E-04  9.000008E+00  8.047887E-07 -1.315800E-05  3.265190E-15 -4.684563E-14
      1405  14  1.842357E-04  9.000004E+00  4.429266E-07 -1.071791E-05  4.948053E-15 -1.142736E-14
      1405  15  1.653325E-04  9.000000E+00 -6.334080E-08 -1.058641E-05  7.410815E-15 -7.473917E-14
      1405  16  2.162758E-04  9.000010E+00  1.633005E-06 -3.325009E-06  1.400564E-14 -6.303814E-14
      1405  17  1.936793E-04  9.000004E+00  9.694236E-07 -2.371948E-06  1.808911E-14 -1.201127E-15
      1405  18  1.704983E-04  8.999998E+00 -1.029579E-06 -3.727469E-06  1.804947E-14 -8.978359E-14
      1405  19  1.806651E-04  8.999992E+00 -5.085829E-06 -2.744256E-05  3.070380E-06  6.034955E-06
      1405  20  1.681234E-04  8.999997E+00 -3.292017E-06 -2.220374E-05  1.623354E-06  2.942076E-06
      1405  21  1.560181E-04  9.000002E+00 -4.515937E-07 -1.927351E-05  1.763286E-07 -6.612387E-07
      1405  22  1.977193E-04  8.999995E+00 -4.595537E-06 -1.640462E-05  5.658089E-07  2.240258E-06
      1405  23  1.819099E-04  8.999999E+00 -1.937649E-06 -1.265282E-05  6.125144E-07  1.331975E-06
      1405  24  1.660264E-04  9.000002E+00  5.758336E-07 -1.120961E-05  6.592200E-07 -8.674375E-08
      1405  25  2.132258E-04  8.999999E+00 -2.783536E-06 -5.565046E-06 -2.188575E-06 -1.554438E-06
      1405  26  1.936491E-04  9.000000E+00 -4.273680E-07 -3.300273E-06 -6.481383E-07 -2.781258E-07
      1405  27  1.734878E-04  9.000000E+00  5.933790E-07 -3.344083E-06  8.922983E-07  4.877512E-07
      1406   1  1.509754E-04  9.000004E+00  1.085577E-06 -1.598496E-05  7.692732E-07  1.567667E-06
      1406   2  1.414523E-04  9.000003E+00  7.983520E-07 -1.248171E-05  3.388195E-07  7.412674E-07
      1406   3  1.315099E-04  9.000001E+00 -1.827585E-07 -1.036888E-05 -9.163435E-08 -9.835409E-08
      1406   4  1.574362E-04  9.000002E+00  9.975853E-07 -9.643549E-06  9.726292E-08  5.203141E-07
      1406   5  1.463448E-04  9.000002E+00  7.813817E-07 -7.228213E-06  3.471666E-08  2.535377E-07
      1406   6  1.348473E-04  9.000001E+00 -9.785682E-08 -6.203301E-06 -2.782960E-08 -2.646045E-08
      1406   7  1.620486E-04  9.000000E+00 -1.413258E-08 -3.076069E-06 -6.322297E-07 -5.270389E-07
      1406   8  1.495038E-04  9.000000E+00  1.089358E-07 -1.748652E-06 -3.268684E-07 -2.341919E-07
      1406   9  1.365661E-04  9.000000E+00 -4.001801E-07 -1.811658E-06 -2.150710E-08  4.543325E-08
      1406  10  1.490193E-04  9.000001E+00 -4.704323E-07 -1.668288E-05  1.634629E-14 -4.681376E-14
      1406  11  1.402551E-04  9.000001E+00  1.254053E-09 -1.289873E-05  1.959054E-14  4.097940E-15
      1406  12  1.310716E-04  9.000001E+00 -2.209452E-07 -1.050502E-05  1.038380E-14  1.885943E-14
      1406  13  1.559717E-04  8.999999E+00 -3.477575E-07 -1.008849E-05  2.850415E-15 -7.534513E-14
      1406  14  1.456391E-04  9.000001E+00  1.949503E-07 -7.392268E-06 -4.582929E-16 -7.705501E-16
      1406  15  1.349005E-04  9.000001E+00  7.462309E-08 -6.086468E-06  8.876197E-16  2.112588E-14
      1406  16  1.610756E-04  8.999997E+00 -1.148809E-06 -3.268043E-06 -9.494100E-15 -1.010869E-13
      1406  17  1.492897E-04  8.999999E+00 -2.668290E-07 -1.659736E-06 -2.280083E-14  1.009442E-14
      1406  18  1.371109E-04  9.000000E+00 -1.703360E-08 -1.441854E-06 -1.011696E-14  1.432783E-14
      1406  19  1.509754E-04  9.000004E+00  1.085577E-06 -1.598496E-05 -7.692732E-07 -1.567667E-06
      1406  20  1.414523E-04  9.000003E+00  7.983520E-07 -1.248171E-05 -3.388194E-07 -7.412673E-07
      1406  21  1.315099E-04  9.000001E+00 -1.827586E-07 -1.036888E-05  9.163436E-08  9.835416E-08
      1406  22  1.574362E-04  9.000002E+00  9.975851E-07 -9.643548E-06 -9.726291E-08 -5.203143E-07
      1406  23  1.463448E-04  9.000002E+00  7.813817E-07 -7.228213E-06 -3.471665E-08 -2.535377E-07
      1406  24  1.348473E-04  9.000001E+00 -9.785680E-08 -6.203301E-06  2.782959E-08  2.646048E-08
      1406  25  1.620486E-04  9.000000E+00 -1.413276E-08 -3.076069E-06  6.322297E-07  5.270387E-07
      1406  26  1.495038E-04  9.000000E+00  1.089359E-07 -1.748652E-06  3.268684E-07  2.341919E-07
      1406  27  1.365661E-04  9.000000E+00 -4.001800E-07 -1.811658E-06  2.150709E-08 -4.543321E-08
      1407   1  1.272499E-04  9.000000E+00 -4.893048E-07 -8.826030E-06 -1.255122E-08 -3.095508E-07
      1407   2  1.230512E-04  9.000001E+00 -1.692280E-07 -6.062534E-06 -5.968482E-08 -1.531117E-07
      1407   3  1.186237E-04  9.000001E+00 -1.842813E-07 -3.791639E-06 -1.068184E-07  5.609096E-08
      1407   4  1.300716E-04  9.000000E+00 -2.761528E-07 -5.217337E-06  1.308493E-07 -1.126915E-07
      1407   5  1.252339E-04  9.000001E+00  1.207148E-07 -3.453415E-06 -1.274568E-08 -8.643237E-08
      1407   6  1.201145E-04  9.000001E+00  5.933746E-08 -2.182093E-06 -1.563407E-07 -7.409669E-09
      1407   7  1.314157E-04  9.000000E+00 -3.444372E-07 -1.590125E-06  2.907789E-07  8.416781E-08
      1407   8  1.259058E-04  9.000000E+00  5.208602E-08 -8.257772E-07  5.072250E-08 -1.975300E-08
      1407   9  1.200616E-04  9.000000E+00 -1.327510E-07 -5.540291E-07 -1.893339E-07 -7.091026E-08
      1407  10  1.275650E-04  9.000001E+00 -1.089852E-07 -8.518147E-06 -9.988731E-15  6.740675E-15
      1407  11  1.231826E-04  9.000001E+00  2.744874E-08 -5.846783E-06 -1.369281E-14  2.823757E-15
      1407  12  1.185714E-04  9.000001E+00 -1.712473E-07 -3.668020E-06 -6.992169E-15  2.427342E-14
      1407  13  1.302255E-04  9.000001E+00  3.506738E-08 -4.970668E-06  2.193354E-15  9.184038E-15
      1407  14  1.252040E-04  9.000001E+00  2.482923E-07 -3.298879E-06  3.000467E-15 -9.296022E-15
      1407  15  1.199011E-04  9.000001E+00  3.272152E-09 -2.119689E-06  2.127561E-15  1.223357E-14
      1407  16  1.314083E-04  9.000000E+00 -1.023161E-07 -1.404670E-06  1.550739E-14 -1.271455E-14
      1407  17  1.257148E-04  9.000000E+00  1.105641E-07 -7.324547E-07  1.334248E-14 -8.486920E-15
      1407  18  1.196870E-04  9.000000E+00 -2.579156E-07 -5.528391E-07  1.103161E-14 -6.091666E-15
      1407  19  1.272499E-04  9.000000E+00 -4.893048E-07 -8.826030E-06  1.255121E-08  3.095508E-07
      1407  20  1.230512E-04  9.000001E+00 -1.692281E-07 -6.062534E-06  5.968480E-08  1.531118E-07
      1407  21  1.186237E-04  9.000001E+00 -1.842813E-07 -3.791639E-06  1.068184E-07 -5.609091E-08
      1407  22  1.300716E-04  9.000000E+00 -2.761528E-07 -5.217337E-06 -1.308493E-07  1.126915E-07
      1407  23  1.252339E-04  9.000001E+00  1.207148E-07 -3.453415E-06  1.274568E-08  8.643239E-08
      1407  24  1.201145E-04  9.000001E+00  5.933743E-08 -2.182093E-06  1.563407E-07  7.409657E-09
      1407  25  1.314157E-04  9.000000E+00 -3.444371E-07 -1.590125E-06 -2.907789E-07 -8.416778E-08
      1407  26  1.259058E-04  9.000000E+00  5.208606E-08 -8.257772E-07 -5.072246E-08  1.975302E-08
      1407  27  1.200616E-04  9.000000E+00 -1.327510E-07 -5.540291E-07  1.893339E-07  7.091024E-08
      1408   1  1.174908E-04  9.000001E+00 -7.655522E-08 -2.263688E-06  1.253466E-07  1.217199E-07
      1408   2  1.176187E-04  9.000001E+00  1.132820E-07 -2.975305E-14 -3.597311E-15  1.139818E-07
      1408   3  1.174908E-04  9.000001E+00 -7.655506E-08  2.263688E-06 -1.253466E-07  1.217199E-07
      1408   4  1.185635E-04  9.000001E+00  5.159031E-08 -1.371728E-06  8.575402E-08  2.033769E-08
      1408   5  1.186991E-04  9.000001E+00  2.594832E-07 -9.773457E-15 -4.303692E-15  1.259948E-08
      1408   6  1.185635E-04  9.000001E+00  5.159039E-08  1.371728E-06 -8.575403E-08  2.033758E-08
      1408   7  1.182793E-04  9.000000E+00 -1.941948E-07 -4.797691E-07  4.616145E-08 -8.104458E-08
      1408   8  1.184227E-04  9.000000E+00  3.175386E-08 -1.870701E-14  8.629094E-16 -8.878277E-08
      1408   9  1.182793E-04  9.000000E+00 -1.941947E-07  4.797691E-07 -4.616145E-08 -8.104468E-08
      1408  10  1.172739E-04  9.000001E+00 -1.646311E-07 -2.287579E-06 -1.936466E-15  2.689526E-14
      1408  11  1.174018E-04  9.000001E+00  2.520609E-08 -4.917271E-14  1.242838E-15  1.655504E-15
      1408  12  1.172739E-04  9.000001E+00 -1.646309E-07  2.287578E-06  2.391939E-15 -3.229752E-14
      1408  13  1.183884E-04  9.000001E+00 -1.856750E-08 -1.395619E-06  5.510776E-15  1.936155E-14
      1408  14  1.185241E-04  9.000001E+00  1.893254E-07 -1.852885E-14  8.386819E-15 -2.726965E-15
      1408  15  1.183884E-04  9.000001E+00 -1.856747E-08  1.395619E-06  4.938112E-15 -3.751876E-14
      1408  16  1.181460E-04  9.000000E+00 -2.464345E-07 -5.036599E-07  1.519475E-14  7.236414E-15
      1408  17  1.182894E-04  9.000000E+00 -2.048599E-08 -1.822343E-14  2.188639E-14  4.292358E-15
      1408  18  1.181460E-04  9.000000E+00 -2.464346E-07  5.036598E-07  1.391920E-14 -4.357382E-14
      1408  19  1.174908E-04  9.000001E+00 -7.655516E-08 -2.263688E-06 -1.253466E-07 -1.217199E-07
      1408  20  1.176187E-04  9.000001E+00  1.132821E-07 -8.948822E-14  7.601442E-15 -1.139818E-07
      1408  21  1.174908E-04  9.000001E+00 -7.655499E-08  2.263688E-06  1.253466E-07 -1.217200E-07
      1408  22  1.185635E-04  9.000001E+00  5.159032E-08 -1.371728E-06 -8.575401E-08 -2.033764E-08
      1408  23  1.186991E-04  9.000001E+00  2.594833E-07 -4.945267E-14  1.159090E-14 -1.259950E-08
      1408  24  1.185635E-04  9.000001E+00  5.159033E-08  1.371728E-06  8.575403E-08 -2.033773E-08
      1408  25  1.182793E-04  9.000000E+00 -1.941949E-07 -4.797691E-07 -4.616142E-08  8.104459E-08
      1408  26  1.184227E-04  9.000000E+00  3.175382E-08 -4.433688E-14  2.400488E-14  8.878278E-08
      1408  27  1.182793E-04  9.000000E+00 -1.941949E-07  4.797689E-07  4.616147E-08  8.104458E-08
      1409   1  1.186237E-04  9.000001E+00 -1.842812E-07  3.791639E-06  1.068184E-07  5.609096E-08
      1409   2  1.230512E-04  9.000001E+00 -1.692280E-07  6.062534E-06  5.968481E-08 -1.531117E-07
      1409   3  1.272499E-04  9.000000E+00 -4.893047E-07  8.826030E-06  1.255120E-08 -3.095509E-07
      1409   4  1.201145E-04  9.000001E+00  5.933755E-08  2.182093E-06  1.563407E-07 -7.409670E-09
      1409   5  1.252339E-04  9.000001E+00  1.207149E-07  3.453415E-06  1.274569E-08 -8.643246E-08
      1409   6  1.300716E-04  9.000000E+00 -2.761528E-07  5.217337E-06 -1.308493E-07 -1.126916E-07
      1409   7  1.200616E-04  9.000000E+00 -1.327510E-07  5.540292E-07  1.893340E-07 -7.091035E-08
      1409   8  1.259058E-04  9.000000E+00  5.208600E-08  8.257771E-07 -5.072245E-08 -1.975312E-08
      1409   9  1.314157E-04  9.000000E+00 -3.444372E-07  1.590125E-06 -2.907789E-07  8.416769E-08
      1409  10  1.185714E-04  9.000001E+00 -1.712472E-07  3.668020E-06  1.067312E-14 -3.600060E-14
      1409  11  1.231826E-04  9.000001E+00  2.744875E-08  5.846783E-06  7.300113E-15 -1.057730E-14
      1409  12  1.275650E-04  9.000001E+00 -1.089852E-07  8.518147E-06  1.722743E-15  3.718382E-14
      1409  13  1.199011E-04  9.000001E+00  3.272170E-09  2.119689E-06 -2.055115E-15 -4.475599E-14
      1409  14  1.252040E-04  9.000001E+00  2.482923E-07  3.298879E-06 -4.359154E-15 -1.073478E-14
      1409  15  1.302255E-04  9.000001E+00  3.506736E-08  4.970668E-06 -4.365842E-15  4.061616E-14
      1409  16  1.196870E-04  9.000000E+00 -2.579157E-07  5.528391E-07 -8.491397E-15 -5.912088E-14
      1409  17  1.257148E-04  9.000000E+00  1.105640E-07  7.324547E-07 -1.430108E-14 -1.455789E-14
      1409  18  1.314083E-04  9.000000E+00 -1.023163E-07  1.404670E-06 -1.829591E-14  3.860793E-14
      1409  19  1.186237E-04  9.000001E+00 -1.842811E-07  3.791639E-06 -1.068184E-07 -5.609106E-08
      1409  20  1.230512E-04  9.000001E+00 -1.692280E-07  6.062534E-06 -5.968482E-08  1.531118E-07
      1409  21  1.272499E-04  9.000000E+00 -4.893048E-07  8.826030E-06 -1.255122E-08  3.095509E-07
      1409  22  1.201145E-04  9.000001E+00  5.933749E-08  2.182094E-06 -1.563407E-07  7.409589E-09
      1409  23  1.252339E-04  9.000001E+00  1.207149E-07  3.453415E-06 -1.274570E-08  8.643243E-08
      1409  24  1.300716E-04  9.000000E+00 -2.761528E-07  5.217337E-06  1.308493E-07  1.126917E-07
      1409  25  1.200616E-04  9.000000E+00 -1.327511E-07  5.540292E-07 -1.893340E-07  7.091023E-08
      1409  26  1.259058E-04  9.000000E+00  5.208595E-08  8.257772E-07  5.072242E-08  1.975311E-08
      1409  27  1.314157E-04  9.000000E+00 -3.444371E-07  1.590125E-06  2.907789E-07 -8.416762E-08
      1410   1  1.315099E-04  9.000001E+00 -1.827585E-07  1.036888E-05  9.163438E-08 -9.835413E-08
      1410   2  1.414523E-04  9.000003E+00  7.983519E-07  1.248171E-05 -3.388194E-07  7.412673E-07
      1410   3  1.509754E-04  9.000004E+00  1.085577E-06  1.598496E-05 -7.692732E-07  1.567667E-06
      1410   4  1.348473E-04  9.000001E+00 -9.785678E-08  6.203302E-06  2.782963E-08 -2.646047E-08
      1410   5  1.463448E-04  9.000002E+00  7.813816E-07  7.228213E-06 -3.471663E-08  2.535377E-07
      1410   6  1.574362E-04  9.000002E+00  9.975850E-07  9.643548E-06 -9.726290E-08  5.203143E-07
      1410   7  1.365661E-04  9.000000E+00 -4.001803E-07  1.811658E-06  2.150709E-08  4.543316E-08
      1410   8  1.495038E-04  9.000000E+00  1.089358E-07  1.748652E-06  3.268684E-07 -2.341919E-07
      1410   9  1.620486E-04  9.000000E+00 -1.413251E-08  3.076069E-06  6.322296E-07 -5.270386E-07
      1410  10  1.310716E-04  9.000001E+00 -2.209453E-07  1.050502E-05 -1.564508E-14  1.850062E-14
      1410  11  1.402551E-04  9.000001E+00  1.254074E-09  1.289873E-05 -1.432895E-14 -4.178469E-14
      1410  12  1.490193E-04  9.000001E+00 -4.704323E-07  1.668288E-05 -1.340834E-14 -3.229019E-14
      1410  13  1.349005E-04  9.000001E+00  7.462304E-08  6.086468E-06 -5.620474E-15  3.214274E-14
      1410  14  1.456391E-04  9.000001E+00  1.949503E-07  7.392268E-06 -9.043075E-15 -3.700453E-14
      1410  15  1.559717E-04  8.999999E+00 -3.477575E-07  1.008849E-05 -1.325298E-14 -3.943842E-14
      1410  16  1.371109E-04  9.000000E+00 -1.703368E-08  1.441854E-06 -5.546148E-15  2.734770E-14
      1410  17  1.492897E-04  8.999999E+00 -2.668290E-07  1.659737E-06 -3.167082E-15 -2.458945E-14
      1410  18  1.610756E-04  8.999997E+00 -1.148808E-06  3.268043E-06 -2.009473E-14 -4.796964E-14
      1410  19  1.315099E-04  9.000001E+00 -1.827585E-07  1.036888E-05 -9.163441E-08  9.835421E-08
      1410  20  1.414523E-04  9.000003E+00  7.983519E-07  1.248171E-05  3.388194E-07 -7.412674E-07
      1410  21  1.509754E-04  9.000004E+00  1.085577E-06  1.598496E-05  7.692732E-07 -1.567667E-06
      1410  22  1.348473E-04  9.000001E+00 -9.785678E-08  6.203301E-06 -2.782965E-08  2.646058E-08
      1410  23  1.463448E-04  9.000002E+00  7.813816E-07  7.228213E-06  3.471661E-08 -2.535378E-07
      1410  24  1.574362E-04  9.000002E+00  9.975850E-07  9.643548E-06  9.726287E-08 -5.203143E-07
      1410  25  1.365661E-04  9.000000E+00 -4.001801E-07  1.811658E-06 -2.150710E-08 -4.543310E-08
      1410  26  1.495038E-04  9.000000E+00  1.089360E-07  1.748652E-06 -3.268684E-07  2.341919E-07
      1410  27  1.620486E-04  9.000000E+00 -1.413247E-08  3.076069E-06 -6.322297E-07  5.270385E-07
      1411   1  1.560181E-04  9.000002E+00 -4.515939E-07  1.927351E-05  1.763286E-07  6.612387E-07
      1411   2  1.681234E-04  8.999997E+00 -3.292017E-06  2.220374E-05  1.623354E-06 -2.942076E-06
      1411   3  1.806651E-04  8.999992E+00 -5.085829E-06  2.744256E-05  3.070380E-06 -6.034955E-06
      1411   4  1.660264E-04  9.000002E+00  5.758335E-07  1.120961E-05  6.592200E-07  8.674380E-08
      1411   5  1.819099E-04  8.999999E+00 -1.937649E-06  1.265282E-05  6.125144E-07 -1.331975E-06
      1411   6  1.977193E-04  8.999995E+00 -4.595536E-06  1.640462E-05  5.658088E-07 -2.240259E-06
      1411   7  1.734878E-04  9.000000E+00  5.933791E-07  3.344083E-06  8.922983E-07 -4.877511E-07
      1411   8  1.936491E-04  9.000000E+00 -4.273681E-07  3.300273E-06 -6.481383E-07  2.781258E-07
      1411   9  2.132258E-04  8.999999E+00 -2.783536E-06  5.565046E-06 -2.188575E-06  1.554438E-06
      1411  10  1.576196E-04  9.000002E+00 -1.069844E-07  1.764373E-05 -1.247712E-14  5.474438E-15
      1411  11  1.727447E-04  9.000003E+00  7.234223E-08  1.926225E-05 -1.747535E-14  1.699947E-14
      1411  12  1.883061E-04  9.000005E+00  1.298279E-06  2.318936E-05 -7.019926E-16 -8.627152E-14
      1411  13  1.653325E-04  9.000000E+00 -6.334074E-08  1.058641E-05 -8.332366E-15 -4.324461E-15
      1411  14  1.842357E-04  9.000004E+00  4.429266E-07  1.071791E-05 -5.239330E-15  8.035696E-15
      1411  15  2.030648E-04  9.000008E+00  8.047887E-07  1.315800E-05  4.517733E-15 -1.053336E-13
      1411  16  1.704983E-04  8.999998E+00 -1.029579E-06  3.727469E-06 -8.106489E-15 -1.235188E-14
      1411  17  1.936793E-04  9.000004E+00  9.694236E-07  2.371947E-06  1.205128E-14  1.688754E-14
      1411  18  2.162758E-04  9.000010E+00  1.633005E-06  3.325009E-06  8.418435E-15 -1.153385E-13
      1411  19  1.560181E-04  9.000002E+00 -4.515939E-07  1.927351E-05 -1.763286E-07 -6.612387E-07
      1411  20  1.681234E-04  8.999997E+00 -3.292017E-06  2.220374E-05 -1.623354E-06  2.942076E-06
      1411  21  1.806651E-04  8.999992E+00 -5.085829E-06  2.744256E-05 -3.070380E-06  6.034955E-06
      1411  22  1.660264E-04  9.000002E+00  5.758335E-07  1.120961E-05 -6.592200E-07 -8.674377E-08
      1411  23  1.819099E-04  8.999999E+00 -1.937649E-06  1.265282E-05 -6.125144E-07  1.331975E-06
      1411  24  1.977193E-04  8.999995E+00 -4.595536E-06  1.640462E-05 -5.658088E-07  2.240259E-06
      1411  25  1.734878E-04  9.000000E+00  5.933792E-07  3.344083E-06 -8.922984E-07  4.877511E-07
      1411  26  1.936491E-04  9.000000E+00 -4.273681E-07  3.300273E-06  6.481383E-07 -2.781258E-07
      1411  27  2.132258E-04  8.999999E+00 -2.783537E-06  5.565046E-06  2.188575E-06 -1.554438E-06
      1412   1  1.992624E-04  8.999999E+00  1.629558E-06  2.700614E-05  1.104585E-07 -2.585381E-06
      1412   2  2.244312E-04  9.000020E+00  1.286281E-05  2.375623E-05 -7.818270E-06  1.213107E-05
      1412   3  2.494371E-04  9.000043E+00  2.115262E-05  2.686918E-05 -1.574700E-05  2.700031E-05
      1412   4  2.136056E-04  8.999999E+00 -6.927160E-07  1.750999E-05 -1.854194E-06 -6.360215E-07
      1412   5  2.444285E-04  9.000011E+00  9.995297E-06  1.433637E-05 -2.971992E-06  5.554350E-06
      1412   6  2.749356E-04  9.000026E+00  1.738337E-05  1.752559E-05 -4.089789E-06  1.189751E-05
      1412   7  2.276065E-04  8.999998E+00 -1.931961E-06  6.145962E-06 -2.887716E-06  1.313338E-06
      1412   8  2.622211E-04  9.000001E+00  3.865539E-06  3.048608E-06  2.805417E-06 -1.022372E-06
      1412   9  2.963672E-04  9.000005E+00  6.006597E-06  6.314107E-06  8.498551E-06 -3.205295E-06
      1412  10  1.904068E-04  9.000001E+00 -4.975182E-07  3.152116E-05  1.531033E-14 -8.573698E-14
      1412  11  2.038887E-04  8.999995E+00 -9.511557E-07  3.332216E-05  1.149032E-14  2.061420E-14
      1412  12  2.172077E-04  8.999991E+00 -4.348228E-06  4.148601E-05  1.138108E-14 -1.771075E-14
      1412  13  2.135891E-04  9.000004E+00  9.683853E-07  1.812939E-05 -2.984777E-15 -1.044948E-13
      1412  14  2.327250E-04  8.999989E+00 -3.048757E-08  2.000667E-05 -9.982647E-15  1.551917E-14
      1412  15  2.515453E-04  8.999977E+00 -4.329299E-06  2.824679E-05 -1.184952E-14 -5.034627E-15
      1412  16  2.364291E-04  9.000007E+00  3.517318E-06  2.869730E-06 -2.265809E-14 -1.212777E-13
      1412  17  2.593568E-04  8.999983E+00 -2.372068E-06  4.823279E-06 -2.861675E-14  1.612461E-14
      1412  18  2.818160E-04  8.999960E+00 -1.191790E-05  1.313968E-05 -2.330337E-14 -9.414693E-15
      1412  19  1.992624E-04  8.999999E+00  1.629558E-06  2.700614E-05 -1.104585E-07  2.585381E-06
      1412  20  2.244312E-04  9.000020E+00  1.286281E-05  2.375623E-05  7.818270E-06 -1.213107E-05
      1412  21  2.494371E-04  9.000043E+00  2.115262E-05  2.686918E-05  1.574700E-05 -2.700031E-05
      1412  22  2.136056E-04  8.999999E+00 -6.927161E-07  1.750999E-05  1.854194E-06  6.360212E-07
      1412  23  2.444285E-04  9.000011E+00  9.995297E-06  1.433637E-05  2.971992E-06 -5.554350E-06
      1412  24  2.749356E-04  9.000026E+00  1.738337E-05  1.752559E-05  4.089789E-06 -1.189751E-05
      1412  25  2.276065E-04  8.999998E+00 -1.931961E-06  6.145962E-06  2.887716E-06 -1.313338E-06
      1412  26  2.622211E-04  9.000001E+00  3.865539E-06  3.048608E-06 -2.805417E-06  1.022372E-06
      1412  27  2.963672E-04  9.000005E+00  6.006597E-06  6.314106E-06 -8.498551E-06  3.205295E-06
      1413   1  2.222965E-04  9.000006E+00 -1.174195E-05  4.910301E-05  1.552351E-06  1.002089E-05
      1413   2  1.880185E-04  8.999918E+00 -5.961150E-05  4.228943E-05  3.445608E-05 -5.315908E-05
      1413   3  1.950012E-04  8.999895E+00 -3.463284E-05  4.208384E-05  6.735981E-05 -1.006341E-04
      1413   4  2.813647E-04  9.000008E+00  1.526455E-06  2.562025E-05  6.656564E-06  2.121721E-06
      1413   5  2.655176E-04  8.999953E+00 -4.519757E-05  2.636458E-05  1.807458E-05 -2.777694E-05
      1413   6  2.752263E-04  8.999946E+00 -5.571837E-05  3.371689E-05  2.949259E-05 -4.197060E-05
      1413   7  3.412100E-04  9.000010E+00  1.093758E-05  7.095839E-06  9.319343E-06 -5.777447E-06
      1413   8  3.486768E-04  8.999991E+00 -2.324756E-05  1.539807E-05 -7.483607E-07 -2.394794E-06
      1413   9  3.659942E-04  9.000005E+00 -5.787446E-05  3.030829E-05 -1.081606E-05  1.669286E-05
      1413  10  2.696681E-04  9.000004E+00  2.067896E-06  2.526177E-05  2.396317E-15 -2.545671E-14
      1413  11  2.783248E-04  9.000017E+00 -2.866956E-06 -3.555466E-06 -3.173772E-15  2.099290E-14
      1413  12  3.282422E-04  9.000094E+00  6.504641E-05 -2.576472E-05  1.076639E-15 -1.869467E-14
      1413  13  2.902299E-04  8.999991E+00 -1.166448E-06  1.609058E-05 -8.167567E-15 -1.693028E-14
      1413  14  3.173175E-04  9.000035E+00 -4.955769E-06 -5.168755E-06 -9.796703E-15  1.324129E-14
      1413  15  3.699609E-04  9.000128E+00  2.745813E-05 -1.982010E-05  1.324321E-15 -2.857043E-14
      1413  16  3.115688E-04  8.999976E+00 -8.258072E-06  1.187774E-05 -1.518697E-14 -2.495771E-14
      1413  17  3.619703E-04  9.000057E+00  4.914997E-07 -1.823691E-06 -1.584404E-14 -4.061794E-15
      1413  18  4.222224E-04  9.000171E+00  8.799302E-06 -8.917133E-06 -6.073691E-15 -4.547101E-14
      1413  19  2.222965E-04  9.000006E+00 -1.174195E-05  4.910301E-05 -1.552351E-06 -1.002089E-05
      1413  20  1.880185E-04  8.999918E+00 -5.961150E-05  4.228943E-05 -3.445608E-05  5.315908E-05
      1413  21  1.950012E-04  8.999895E+00 -3.463284E-05  4.208384E-05 -6.735981E-05  1.006341E-04
      1413  22  2.813647E-04  9.000008E+00  1.526455E-06  2.562025E-05 -6.656564E-06 -2.121721E-06
      1413  23  2.655176E-04  8.999953E+00 -4.519757E-05  2.636458E-05 -1.807458E-05  2.777694E-05
      1413  24  2.752263E-04  8.999946E+00 -5.571837E-05  3.371689E-05 -2.949259E-05  4.197060E-05
      1413  25  3.412100E-04  9.000010E+00  1.093758E-05  7.095839E-06 -9.319343E-06  5.777447E-06
      1413  26  3.486768E-04  8.999991E+00 -2.324756E-05  1.539807E-05  7.483606E-07  2.394794E-06
      1413  27  3.659942E-04  9.000005E+00 -5.787446E-05  3.030829E-05  1.081606E-05 -1.669286E-05
      1414   1  3.189238E-04  8.999885E+00  3.102242E-05 -1.207971E-05  2.398662E-05 -4.539363E-05
      1414   2  5.185199E-04  9.000045E+00  1.889979E-04 -2.401439E-04 -1.678785E-04  2.023793E-04
      1414   3  9.571080E-04  9.000764E+00  5.840490E-04 -6.477186E-04 -3.597437E-04  4.820692E-04
      1414   4  3.648416E-04  8.999929E+00  1.200994E-05 -3.863446E-05 -3.074261E-05 -1.386661E-05
      1414   5  2.834236E-04  8.999976E+00  1.239368E-04 -1.455641E-04 -8.213522E-05  1.073709E-04
      1414   6  4.090807E-04  9.000550E+00  3.984666E-04 -4.320041E-04 -1.335278E-04  2.605253E-04
      1414   7  4.877130E-04  9.000009E+00  3.591700E-05 -6.800994E-05 -7.899670E-05  1.766041E-05
      1414   8  1.123305E-04  8.999930E+00  7.157793E-05 -5.380493E-05  1.008321E-05  1.236248E-05
      1414   9 -8.789372E-05  9.000347E+00  1.953690E-04 -2.191104E-04  9.916313E-05  3.898143E-05
      1414  10  1.074960E-04  8.999874E+00 -3.596753E-05  7.939430E-05  7.775276E-15 -2.504509E-14
      1414  11  1.501707E-04  8.999667E+00 -3.491347E-05 -5.528435E-05 -2.022794E-15 -8.729212E-15
      1414  12  4.318373E-04  9.000020E+00  2.032162E-04 -3.694734E-04  3.191769E-15 -7.972114E-14
      1414  13  3.168386E-04  8.999987E+00  1.505916E-05  5.324009E-07  3.652917E-15 -3.116988E-14
      1414  14  7.849914E-05  8.999668E+00 -2.993541E-05 -1.301164E-05  4.251555E-15 -1.189078E-14
      1414  15  4.723473E-05  8.999876E+00  8.767287E-05 -2.060661E-04  1.234093E-14 -6.804220E-14
      1414  16  6.031347E-04  9.000137E+00  1.090054E-04 -8.115023E-05  1.547094E-15 -4.816662E-14
      1414  17  7.083078E-05  8.999692E+00 -1.225513E-05  2.644034E-05  9.191026E-15 -2.238132E-14
      1414  18 -2.863149E-04  8.999743E+00 -4.538554E-05 -4.547952E-05 -4.582959E-15 -6.602979E-14
      1414  19  3.189238E-04  8.999885E+00  3.102242E-05 -1.207971E-05 -2.398662E-05  4.539363E-05
      1414  20  5.185199E-04  9.000045E+00  1.889979E-04 -2.401439E-04  1.678785E-04 -2.023793E-04
      1414  21  9.571080E-04  9.000764E+00  5.840490E-04 -6.477186E-04  3.597437E-04 -4.820692E-04
      1414  22  3.648416E-04  8.999929E+00  1.200994E-05 -3.863446E-05  3.074261E-05  1.386661E-05
      1414  23  2.834236E-04  8.999976E+00  1.239368E-04 -1.455641E-04  8.213522E-05 -1.073709E-04
      1414  24  4.090807E-04  9.000550E+00  3.984666E-04 -4.320041E-04  1.335278E-04 -2.605253E-04
      1414  25  4.877130E-04  9.000009E+00  3.591700E-05 -6.800994E-05  7.899670E-05 -1.766041E-05
      1414  26  1.123305E-04  8.999930E+00  7.157793E-05 -5.380493E-05 -1.008321E-05 -1.236248E-05
      1414  27 -8.789372E-05  9.000347E+00  1.953690E-04 -2.191104E-04 -9.916313E-05 -3.898143E-05
      1415   1 -1.138208E-04  9.000347E+00  1.347379E-04  1.218034E-04 -3.248564E-04  4.641705E-04
      1415   2 -2.684087E-04  8.999861E+00 -1.002756E-04  8.548596E-05 -1.169241E-04  1.301013E-04
      1415   3 -2.005900E-04  8.999879E+00 -9.737010E-05  7.737005E-05  9.100821E-05 -1.610064E-04
      1415   4  4.746689E-05  9.000434E+00  2.569564E-04  9.189606E-05 -1.139523E-04  2.477583E-04
      1415   5 -6.582757E-05  8.999960E+00  2.555789E-05  4.840023E-05 -2.617799E-05  5.785931E-05
      1415   6  3.229297E-07  8.999947E+00 -6.816545E-05  3.310595E-05  6.159632E-05 -8.907803E-05
      1415   7  5.340612E-05  9.000442E+00  2.748146E-04  6.167150E-05  8.902214E-05  3.134601E-05
      1415   8 -2.735661E-06  8.999996E+00  8.403586E-05  1.099730E-05  5.663847E-05 -1.438265E-05
      1415   9  7.760591E-05  8.999968E+00 -6.931137E-05 -1.147534E-05  2.425481E-05 -1.714971E-05
      1415  10 -9.905372E-05  8.999847E+00 -1.080716E-05  1.544564E-04 -1.186076E-15 -6.459074E-14
      1415  11 -7.360837E-05  8.999782E+00 -6.578739E-05  1.190987E-05 -6.461210E-15  2.856530E-14
      1415  12  1.742435E-04  9.000220E+00  1.171513E-04 -1.024351E-04 -9.003915E-15  1.911285E-15
      1415  13 -1.236669E-04  8.999854E+00  3.173961E-05  1.845601E-04  1.232097E-14 -5.502107E-14
      1415  14 -5.692817E-05  8.999800E+00 -1.962571E-05  3.483522E-05  9.395031E-15  2.571953E-14
      1415  15  1.892556E-04  9.000207E+00  6.668419E-05 -8.668815E-05  7.524886E-15 -3.376517E-15
      1415  16 -3.036286E-04  8.999783E+00 -3.007408E-05  2.143466E-04 -1.396103E-15 -5.818701E-14
      1415  17 -1.797372E-04  8.999757E+00 -4.081955E-05  5.744337E-05  7.429065E-15 -2.190532E-15
      1415  18  8.063764E-05  9.000149E+00 -1.413355E-05 -7.125836E-05  1.747053E-14 -4.163784E-14
      1415  19 -1.138208E-04  9.000347E+00  1.347379E-04  1.218034E-04  3.248564E-04 -4.641705E-04
      1415  20 -2.684087E-04  8.999861E+00 -1.002756E-04  8.548596E-05  1.169241E-04 -1.301013E-04
      1415  21 -2.005900E-04  8.999879E+00 -9.737010E-05  7.737005E-05 -9.100821E-05  1.610064E-04
      1415  22  4.746689E-05  9.000434E+00  2.569564E-04  9.189606E-05  1.139523E-04 -2.477583E-04
      1415  23 -6.582757E-05  8.999960E+00  2.555789E-05  4.840023E-05  2.617799E-05 -5.785931E-05
      1415  24  3.229296E-07  8.999947E+00 -6.816545E-05  3.310595E-05 -6.159632E-05  8.907803E-05
      1415  25  5.340612E-05  9.000442E+00  2.748146E-04  6.167150E-05 -8.902214E-05 -3.134601E-05
      1415  26 -2.735661E-06  8.999996E+00  8.403586E-05  1.099730E-05 -5.663847E-05  1.438265E-05
      1415  27  7.760591E-05  8.999968E+00 -6.931137E-05 -1.147534E-05 -2.425481E-05  1.714970E-05
