
 displacements (vx,vy,vz) for set NALL and time  0.1000000E+01

         1  8.541514E-10  3.000000E+00  2.730000E+02
         2  8.541514E-10  9.999998E-01  0.000000E+00
         3  8.541514E-10  2.000000E+00  2.730000E+02
         4  1.030784E-05  0.000000E+00  0.000000E+00
         5  1.030680E-05 -1.360545E-05  0.000000E+00
         6  1.030784E-05 -2.721089E-05  0.000000E+00
         7  1.012585E-05 -2.721089E-05  0.000000E+00
         8  9.976790E-06 -2.721089E-05  0.000000E+00
         9  9.975783E-06 -1.360545E-05  0.000000E+00
        10  9.976790E-06 -1.085420E-12  0.000000E+00
        11  1.012585E-05 -7.169033E-12  0.000000E+00
        12  8.541514E-10  0.000000E+00  0.000000E+00
        13  8.541514E-10  0.000000E+00  0.000000E+00

 stresses (elem, integ.pnt.,sxx,syy,szz,sxy,sxz,syz) for set WALL and time  0.1000000E+01

         1   1 -1.705703E+00  1.504016E-02  2.080346E+01 -1.336476E-04  3.044399E-01  1.806861E-06
         1   2 -9.663193E-01 -1.780630E-02  1.995458E+01 -5.253174E-06  2.830567E-01  7.101919E-08
         1   3 -1.627605E-01  1.350987E-02  1.925541E+01  1.231413E-04  2.626377E-01 -1.664823E-06
         1   4 -1.705705E+00  1.504151E-02  2.080347E+01 -3.424131E-14  3.044400E-01 -1.401194E-13
         1   5 -9.663225E-01 -1.780524E-02  1.995459E+01  5.770738E-14  2.830568E-01  2.101588E-13
         1   6 -1.627640E-01  1.351067E-02  1.925542E+01 -3.410020E-14  2.626377E-01  2.101569E-13
         1   7 -1.705703E+00  1.504016E-02  2.080346E+01  1.336476E-04  3.044399E-01 -1.806861E-06
         1   8 -9.663193E-01 -1.780630E-02  1.995458E+01  5.253174E-06  2.830567E-01 -7.101907E-08
         1   9 -1.627605E-01  1.350987E-02  1.925541E+01 -1.231413E-04  2.626377E-01  1.664822E-06
         1  10 -1.709697E+00  1.509177E-02  2.080763E+01 -1.336600E-04  6.499349E-16  4.275887E-18
         1  11 -9.701516E-01 -1.780955E-02  1.995840E+01 -5.253795E-06  0.000000E+00  4.378295E-14
         1  12 -1.664370E-01  1.345566E-02  1.925891E+01  1.231524E-04 -1.104889E-14  8.751673E-15
         1  13 -1.709700E+00  1.509311E-02  2.080763E+01  8.839115E-14  3.489124E-14  0.000000E+00
         1  14 -9.701548E-01 -1.780849E-02  1.995841E+01  3.564380E-14  3.502807E-14 -1.751373E-14
         1  15 -1.664404E-01  1.345646E-02  1.925892E+01 -8.661238E-14  2.736568E-16  4.816341E-14
         1  16 -1.709697E+00  1.509177E-02  2.080763E+01  1.336600E-04  1.789031E-14 -3.502807E-14
         1  17 -9.701516E-01 -1.780955E-02  1.995840E+01  5.253795E-06  1.751404E-14  5.253783E-14
         1  18 -1.664370E-01  1.345566E-02  1.925891E+01 -1.231524E-04 -1.960067E-14 -3.065116E-14
         1  19 -1.705703E+00  1.504016E-02  2.080346E+01 -1.336476E-04 -3.044399E-01 -1.806861E-06
         1  20 -9.663193E-01 -1.780630E-02  1.995458E+01 -5.253174E-06 -2.830567E-01 -7.101926E-08
         1  21 -1.627605E-01  1.350987E-02  1.925541E+01  1.231413E-04 -2.626377E-01  1.664823E-06
         1  22 -1.705705E+00  1.504151E-02  2.080347E+01  6.215430E-14 -3.044400E-01  7.369597E-18
         1  23 -9.663225E-01 -1.780524E-02  1.995459E+01  6.208589E-14 -2.830568E-01 -7.004545E-14
         1  24 -1.627640E-01  1.351067E-02  1.925542E+01 -6.037126E-14 -2.626377E-01 -7.004521E-14
         1  25 -1.705703E+00  1.504016E-02  2.080346E+01  1.336476E-04 -3.044399E-01  1.806861E-06
         1  26 -9.663193E-01 -1.780630E-02  1.995458E+01  5.253174E-06 -2.830567E-01  7.101907E-08
         1  27 -1.627605E-01  1.350987E-02  1.925541E+01 -1.231413E-04 -2.626377E-01 -1.664822E-06
