
 displacements (vx,vy,vz) for set NALL and time  0.1000000E+01

         1  0.000000E+00  7.142857E-05  0.000000E+00
         2  2.380952E-04  7.142857E-05 -1.455838E-22
         3  2.380952E-04 -2.830133E-16 -1.323489E-23
         4  0.000000E+00  0.000000E+00  1.323489E-22
         5  1.190476E-04  7.142857E-05  7.571416E-19
         6  2.380952E-04  3.571429E-05 -7.653472E-19
         7  1.190476E-04 -8.770124E-17  8.756203E-20
         8  0.000000E+00  3.571429E-05  8.311511E-20
         9  2.380952E-04 -7.142857E-05 -5.293956E-23
        10  0.000000E+00 -7.142857E-05 -7.940934E-23
        11  2.380952E-04 -3.571429E-05  3.238842E-19
        12  1.190476E-04 -7.142857E-05 -3.544303E-19
        13  0.000000E+00 -3.571429E-05 -2.805797E-19
        14  4.761905E-04  7.142857E-05  2.117582E-22
        15  4.761905E-04 -8.306108E-16 -1.191140E-22
        16  3.571429E-04  7.142857E-05 -4.536920E-20
        17  4.761905E-04  3.571429E-05  2.689330E-20
        18  3.571429E-04 -5.613556E-16  2.658625E-19
        19  4.761905E-04 -7.142857E-05  4.896909E-22
        20  4.761905E-04 -3.571429E-05  2.918029E-19
        21  3.571429E-04 -7.142857E-05  7.329482E-19

 stresses (elem, integ.pnt.,sxx,syy,szz,sxy,sxz,syz) for set EALL and time  0.1000000E+01

         1   1  1.000000E+02 -5.186962E-12  9.237056E-14  1.228123E-12  3.815759E-13 -4.363174E-14
         1   2  1.000000E+02 -1.377032E-11 -2.557954E-13  5.219134E-12 -1.476661E-12 -9.939487E-13
         1   3  1.000000E+02 -1.018918E-11 -2.486900E-13 -6.618720E-12  2.132548E-12 -1.449370E-13
         1   4  1.000000E+02 -1.271871E-11  1.087130E-12 -4.441781E-12 -1.481259E-12  6.955209E-13
         1   5  1.000000E+02 -5.186962E-12  9.237056E-14  1.232502E-12 -3.850266E-13 -4.526620E-13
         1   6  1.000000E+02 -1.378453E-11 -2.842171E-13  5.231175E-12 -2.864674E-13  1.323488E-13
         1   7  1.000000E+02 -1.016787E-11 -2.202682E-13 -6.618446E-12 -2.004297E-12  1.076085E-13
         1   8  1.000000E+02 -1.273293E-11  1.072920E-12 -4.436855E-12  2.248646E-12 -4.026119E-13
         2   1  1.000000E+02 -1.934097E-11  2.557954E-13 -9.216761E-12  2.158218E-12  2.615047E-13
         2   2  1.000000E+02 -7.133849E-12 -9.734435E-13 -1.328905E-11 -2.204940E-12 -3.451924E-13
         2   3  1.000000E+02 -5.691447E-12 -4.973799E-14 -2.888721E-12  7.055150E-13  1.304573E-13
         2   4  1.000000E+02  2.188472E-12  3.197442E-13 -7.440181E-12 -1.420563E-12  3.577934E-13
         2   5  1.000000E+02 -1.933387E-11  2.629008E-13 -9.213477E-12 -2.172544E-12 -4.007020E-13
         2   6  1.000000E+02 -7.140954E-12 -9.734435E-13 -1.327400E-11  1.779120E-12  4.665335E-13
         2   7  1.000000E+02 -5.691447E-12 -5.684342E-14 -2.893100E-12 -1.050167E-12  2.856293E-14
         2   8  1.000000E+02  2.188472E-12  3.055334E-13 -7.445654E-12  6.246131E-13 -7.394463E-13
         3   1  1.000000E+02 -1.150369E-11  4.618528E-13  4.064358E-11 -4.673160E-13 -6.233785E-13
         3   2  1.000000E+02  3.524292E-11 -1.207923E-13  3.115535E-11 -4.807102E-12  7.267095E-13
         3   3  1.000000E+02 -2.304290E-11 -1.072920E-12 -1.609474E-11  2.176812E-12  5.329106E-13
         3   4  1.000000E+02  4.129674E-11  4.192202E-13 -4.197009E-11 -2.601215E-12 -5.126508E-13
         3   5  1.000000E+02 -1.154632E-11  4.192202E-13  4.065234E-11 -4.678163E-13 -3.574955E-14
         3   6  1.000000E+02  3.525003E-11 -9.237056E-14  3.116849E-11  4.790020E-13 -6.244880E-13
         3   7  1.000000E+02 -2.306422E-11 -1.094236E-12 -1.607613E-11 -1.856830E-12 -5.488344E-14
         3   8  1.000000E+02  4.128253E-11  3.836931E-13 -4.195942E-11  2.622376E-12  6.495669E-13
         4   1  1.000000E+02 -5.172751E-12  8.952838E-13 -1.145445E-11  3.833989E-12 -2.007871E-13
         4   2  1.000000E+02  1.871570E-11 -1.776357E-13  2.771651E-11 -9.119014E-13  6.786731E-13
         4   3  1.000000E+02 -1.163158E-11 -3.836931E-13 -2.569199E-11  2.783928E-12  1.684529E-13
         4   4  1.000000E+02  1.330136E-11  1.278977E-13 -2.497939E-11 -1.475190E-12 -8.094896E-13
         4   5  1.000000E+02 -5.165646E-12  9.023893E-13 -1.144597E-11 -1.327193E-12  5.378382E-13
         4   6  1.000000E+02  1.871570E-11 -1.776357E-13  2.770775E-11  6.329169E-13 -3.907648E-13
         4   7  1.000000E+02 -1.165290E-11 -4.050094E-13 -2.568762E-11 -7.617066E-14 -5.847362E-13
         4   8  1.000000E+02  1.335110E-11  2.486900E-13 -2.494218E-11 -1.254460E-13  8.277263E-13
