
 displacements (vx,vy,vz) for set NALL and time  0.1000000E+01

         1  0.000000E+00  0.000000E+00  0.000000E+00
         2  1.857143E-04  0.000000E+00  0.000000E+00
         3  1.857143E-04  4.333333E-04  0.000000E+00
         4  1.256665E-16  4.333333E-04  0.000000E+00

 strains (elem, integ.pnt.,exx,eyy,ezz,exy,exz,eyz) forset EALL and time  0.1000000E+01

         1   1 -1.857143E-04  4.333333E-04  0.000000E+00  3.202123E-17 -2.168404E-19 -3.252607E-19
         1   2 -1.857143E-04  4.333333E-04  0.000000E+00 -8.312781E-18  0.000000E+00  1.301043E-18
         1   3 -1.857143E-04  4.333333E-04  0.000000E+00 -1.179917E-17  8.673617E-19  0.000000E+00
         1   4 -1.857143E-04  4.333333E-04  0.000000E+00 -5.212641E-17 -2.168404E-19  1.734723E-18
         1   5 -1.857143E-04  4.333333E-04  0.000000E+00  3.202123E-17  0.000000E+00 -3.252607E-19
         1   6 -1.857143E-04  4.333333E-04  0.000000E+00 -8.311087E-18 -1.084202E-19  1.301043E-18
         1   7 -1.857143E-04  4.333333E-04  0.000000E+00 -1.179747E-17  8.673617E-19  0.000000E+00
         1   8 -1.857143E-04  4.333333E-04  0.000000E+00 -5.212980E-17 -2.168404E-19  1.734723E-18

 stresses (elem, integ.pnt.,sxx,syy,szz,sxy,sxz,syz) for set EALL and time  0.1000000E+01

         1   1 -1.858780E-11  1.000000E+02  3.000000E+01  5.172661E-12 -3.502807E-14 -5.254211E-14
         1   2  6.181722E-12  1.000000E+02  3.000000E+01 -1.342834E-12  0.000000E+00  2.101684E-13
         1   3 -8.817835E-12  1.000000E+02  3.000000E+01 -1.906020E-12  1.401123E-13  0.000000E+00
         1   4  1.595168E-11  1.000000E+02  3.000000E+01 -8.420420E-12 -3.502807E-14  2.802246E-13
         1   5 -1.858780E-11  1.000000E+02  3.000000E+01  5.172661E-12  0.000000E+00 -5.254211E-14
         1   6  6.181722E-12  1.000000E+02  3.000000E+01 -1.342560E-12 -1.751404E-14  2.101684E-13
         1   7 -8.817835E-12  1.000000E+02  3.000000E+01 -1.905746E-12  1.401123E-13  0.000000E+00
         1   8  1.595168E-11  1.000000E+02  3.000000E+01 -8.420967E-12 -3.502807E-14  2.802246E-13
