
 forces (fx,fy,fz) for set NALL and time  0.1000000E+01

         1 -2.365252E-14 -5.554585E-15  3.456437E-15
         2 -1.581728E-16  1.393850E-15  2.801578E-15
         3  2.126486E-15 -2.281161E-16 -1.155326E-15
         4 -9.711118E-15 -2.321693E-14  1.389785E-15
         5 -5.364632E-15 -3.014819E-14 -2.170573E-16
         6 -3.757845E-16 -8.838850E-15  2.968546E-16
         7 -4.670743E-16 -8.051285E-15 -1.517883E-16
         8  1.363493E-15 -2.648045E-14 -1.533496E-15
         9 -6.573841E-15  2.870967E-16 -3.707104E-15
        10  9.885230E-16  2.527492E-15  1.804112E-16
        11 -5.139012E-15 -1.259930E-14 -5.733261E-16
        12 -7.689162E-16 -1.417833E-14 -1.229301E-14
        13  1.673141E-15 -3.012738E-14 -4.094598E-15
        14  7.209511E-15  3.094964E-15 -2.450297E-15
        15  2.252972E-16  5.135215E-15  3.035766E-16
        16  9.012322E-15  6.278506E-15  7.350457E-15
        17 -3.610393E-16  1.014596E-15  6.288373E-18
        18 -2.044805E-15  3.339343E-16 -2.793772E-15
        19 -2.676678E-15  1.656878E-15 -2.075163E-16
        20 -2.615963E-15 -2.561883E-14 -1.326196E-15
        21  7.707376E-15  1.311234E-15  9.020562E-17
        22  6.665675E-16  1.273287E-15  2.498002E-15
        23 -2.998470E-15  6.850423E-15 -2.409531E-15
        24  1.286384E-14 -1.414277E-14  2.069525E-15
        25 -3.647148E-15 -5.414939E-15 -3.564857E-15
        26  7.358263E-15  3.424344E-15 -2.654127E-15
        27  1.273612E-15 -1.120024E-14  2.946428E-15
        28 -5.887651E-15 -2.491063E-14 -4.309053E-15
        29  1.589262E-14 -1.958936E-15 -3.718597E-15
        30  4.946120E-14  6.896914E-14  1.487178E-14
        31  1.852262E-14  1.757813E-13  2.879641E-16
        32 -8.003096E-15 -9.347991E-16  1.865261E-15
        33  1.773538E-14  1.221896E-15 -4.900594E-16
        34  1.707510E-15  3.049644E-15 -6.088879E-16
        35  4.248040E-16  4.704733E-15 -1.044466E-15
        36 -3.670377E-15 -2.239117E-14 -9.210840E-16
        37 -1.493380E-15  2.259477E-16 -4.362830E-16
        38 -4.214511E-15  1.702631E-15 -3.823331E-15
        39 -2.886742E-15  2.795507E-15  4.770490E-16
        40  5.832140E-15 -2.240872E-14 -3.996803E-15
        41 -1.762479E-15 -3.225892E-14  1.989728E-15
        42 -3.769771E-16 -1.326196E-15  7.138387E-15
        43  2.877147E-15 -2.032229E-15 -1.289767E-15
        44 -2.507976E-15 -4.981584E-14  3.755676E-15
        45  1.191178E-14  9.112936E-15  1.199050E-15
        46  4.252664E-15 -2.143728E-14 -7.389494E-16
        47  3.664983E-15 -5.085776E-15 -1.242062E-15
        48  2.101189E-14 -2.553611E-14 -8.682291E-15
        49  4.226654E-15 -1.516392E-15  5.356772E-16
        50  1.402578E-14  4.611654E-16  3.330534E-15
        51 -1.748630E-14 -3.063522E-15 -9.539183E-15
        52 -1.402004E-14  4.180423E-14  1.633893E-16
        53 -3.728609E-14  1.345495E-16  6.344968E-15
        54  2.454634E-16  3.321746E-14  1.068698E-15
        55 -7.467985E-15  5.146350E-14  3.296842E-15
        56 -6.628270E-15  2.898007E-14  6.826137E-15
        57  5.488150E-15  1.793108E-14 -1.658179E-15
        58  9.053917E-15 -1.670605E-14  2.371204E-15
        59  1.566130E-16 -7.067697E-15  1.449361E-15
        60  2.558186E-14 -2.705258E-14  3.122502E-17
        61  2.229770E-15 -1.633090E-14 -2.984158E-15
        62  4.402078E-15  6.922680E-14 -1.206934E-15
        63  3.849460E-15  3.206604E-14 -1.364143E-15
        64 -2.481159E-14  2.052633E-14 -3.204468E-15
        65 -1.923754E-15  3.433343E-14 -1.004839E-15
        66 -1.542082E-14 -5.085125E-15 -3.847617E-15
        67 -4.072263E-15  1.227772E-14 -1.210837E-15
        68 -9.456195E-15  8.140190E-15 -6.626644E-15
        69  7.735674E-15  4.327365E-14  2.275957E-15
        70 -9.404519E-15 -7.829475E-15  6.207328E-16
        71  1.239048E-14  1.460724E-14  1.849215E-15
        72 -2.948596E-15 -2.794531E-15 -3.825933E-15
        73  9.137445E-16 -6.007564E-15 -3.010326E-15
        74 -7.158749E-15  1.202966E-14 -2.422177E-15
        75 -4.060446E-15 -3.362436E-15 -3.154595E-15
        76 -1.061304E-14  8.218903E-15 -3.622536E-15
        77 -1.258737E-14 -2.140269E-14  1.394718E-15
        78 -6.893683E-15  2.530311E-15 -2.466343E-15
        79 -2.508248E-15  5.463945E-15 -3.599551E-16
        80 -4.472117E-15  2.141690E-14 -3.226586E-15
        81 -5.581473E-16 -1.133924E-14  3.743533E-15
        82 -6.331741E-17 -2.696237E-14  5.433154E-15
        83 -8.333333E-01  2.571766E-14 -1.610920E-14
        84 -8.333333E-01  5.345442E-15 -2.297399E-15
        85 -8.333333E-01  1.300707E-14 -2.783501E-15
        86 -8.333333E-01 -2.099015E-15 -3.092900E-15
        87 -1.573394E-15 -7.465816E-15 -3.198830E-15
        88 -1.424533E-15  9.972492E-16  4.159867E-15
        89 -2.120916E-14  5.193762E-15 -5.141720E-15
        90 -7.907461E-14  1.738342E-15  5.015747E-15
        91 -1.982166E-14  3.510592E-15 -2.094185E-15
        92 -1.311554E-14  1.801619E-15  7.295686E-15
        93 -1.864409E-14  9.561931E-15  6.250835E-15
        94  3.333333E+00 -2.843564E-14  1.859500E-15
        95  3.333333E+00  5.286570E-16  1.519843E-14
        96  3.333333E+00 -1.290710E-14  2.323322E-14
        97  3.333333E+00  1.568380E-14  2.418742E-14
        98 -1.998335E-14 -1.665877E-16  1.189734E-15
        99 -8.009673E-15  1.930530E-15 -7.774039E-15
       100  9.458790E-16 -2.347731E-15 -3.200201E-15
       101 -5.961170E-15  7.215691E-15 -3.510143E-15
       102  1.278383E-15  8.654535E-15  3.009745E-15
       103  6.275891E-15 -2.470897E-14  3.392685E-15
       104 -4.368034E-15  8.589863E-15 -2.519577E-15
       105 -1.432909E-15 -7.680976E-15 -8.882868E-16
       106 -9.935629E-16 -3.089976E-15  1.441555E-15
       107 -1.803375E-14  2.575631E-15 -6.574602E-16
       108 -5.913239E-16 -5.072548E-15 -3.996803E-15
       109 -1.545547E-14 -1.891196E-14 -3.850219E-15
       110 -6.972546E-15 -9.089951E-15  2.367898E-15
       111 -9.652869E-15  8.662559E-15 -2.171874E-15
       112 -8.398664E-15 -2.088130E-14 -2.653910E-15
       113  4.299621E-15 -4.957794E-14  3.291638E-16
       114  8.907913E-15 -1.070688E-14  2.581594E-15
       115  2.215884E-15  1.651457E-14 -1.047426E-14
       116 -4.565792E-15 -9.892261E-16  5.309555E-15
       117 -4.374973E-15  1.577406E-14 -3.389216E-16
       118  1.504309E-14 -2.628106E-14  1.829700E-15
       119  2.883718E-14  1.473528E-14 -1.798041E-15
       120  7.801051E-15  6.975323E-15  3.712308E-15
       121  4.587910E-15  8.645862E-15  6.687359E-16
       122  9.797041E-15 -8.636212E-15  3.063251E-15
       123  9.920884E-15  1.614854E-14  1.069544E-14
       124  1.369738E-14 -4.128642E-16  7.801051E-15
       125  5.293617E-16 -1.660830E-14 -8.990204E-16
       126 -6.940737E-15  1.340242E-14 -2.121133E-15
       127 -1.245098E-15 -7.866104E-15 -7.458444E-15
       128  9.984635E-15 -1.386911E-15  2.656729E-15
       129 -8.593386E-15 -2.075510E-14  1.127570E-17
       130 -7.236182E-15 -4.808003E-15  2.754741E-15
       131 -1.191386E-14  4.750974E-15 -1.696560E-15
       132 -4.232725E-16 -2.971581E-14 -1.653191E-14
       133  2.558123E-15 -1.433662E-14  4.188924E-15
       134 -1.133667E-15 -1.395384E-14  1.863635E-15
       135 -1.966309E-15 -2.006208E-15 -2.189546E-15
       136 -2.567174E-15 -2.439685E-15 -2.085395E-15
       137 -5.951391E-15  1.967263E-14  6.694298E-15
       138 -1.376080E-15  2.837661E-14 -4.111295E-15
       139 -4.588591E-15 -4.700233E-15 -7.189561E-15
       140 -5.981543E-15 -4.655510E-15  9.273723E-16
       141 -1.994932E-17 -7.716809E-15 -1.738572E-15
       142  3.623837E-15  3.440607E-15  1.942565E-15
       143  5.345117E-15  7.695667E-16  2.607506E-16
       144  3.005408E-16 -7.239001E-15 -2.440539E-16
       145  1.124534E-15 -1.389167E-14  6.444498E-16
       146 -1.955955E-15 -2.124543E-14  1.080006E-14
       147  1.292803E-15  1.068156E-14  4.831205E-16
       148  1.752071E-16  1.188893E-14 -1.425075E-15
       149  3.794708E-15 -5.956173E-15 -1.913660E-14
       150 -1.613571E-14 -1.454305E-14  3.426946E-15
       151  2.565180E-14  1.776357E-15 -5.160802E-16
       152  1.536053E-14 -2.913468E-15 -3.789503E-15
       153 -3.001488E-14 -1.764431E-15  2.611843E-15
       154 -1.744481E-16 -1.649505E-15  2.116363E-16
       155 -1.048640E-15 -2.449430E-15  9.802272E-16
       156  1.518859E-15 -2.749103E-15  1.222546E-15
       157  4.263300E-15  3.986828E-15 -1.081600E-15
       158 -1.367721E-15 -3.022756E-16 -5.618336E-16
       159 -3.161425E-15  9.770830E-16  1.362192E-15
       160 -5.941428E-16  1.017415E-15  5.666041E-16
       161 -1.000000E+01  0.000000E+00  0.000000E+00

 stresses (elem, integ.pnt.,sxx,syy,szz,sxy,sxz,syz) for set EALL and time  0.1000000E+01

         1   1 -6.774771E+01  2.597264E+01  1.281416E+00  1.855667E+01 -6.844896E-01  1.339104E+00
         1   2  1.143400E+00  1.657433E+01 -1.357840E+00 -7.002764E+00  1.834084E-01  1.432522E+00
         1   3 -6.774771E+01  2.597264E+01  1.281416E+00  1.855667E+01  6.844896E-01 -1.339104E+00
         1   4  1.143400E+00  1.657433E+01 -1.357840E+00 -7.002764E+00 -1.834084E-01 -1.432522E+00
         1   5 -3.121973E+00 -1.727134E+01  1.956883E-01  2.528496E+01 -6.844896E-01 -3.132383E-01
         1   6 -5.169021E+00  1.092681E+00  2.071847E-01 -7.627085E-01  1.834084E-01 -3.960546E-01
         1   7 -3.121973E+00 -1.727134E+01  1.956883E-01  2.528496E+01  6.844896E-01  3.132383E-01
         1   8 -5.169021E+00  1.092681E+00  2.071847E-01 -7.627085E-01 -1.834084E-01  3.960546E-01
         2   1 -1.257449E+02 -4.350652E+00 -5.627022E-01 -1.098680E+01  6.020450E-13 -6.416641E-01
         2   2  1.463376E+01 -8.833507E+00  5.627022E-01  1.098680E+01 -1.048379E-12 -4.837404E-01
         2   3 -1.257449E+02 -4.350652E+00 -5.627022E-01 -1.098680E+01  7.060345E-13  6.416641E-01
         2   4  1.463376E+01 -8.833507E+00  5.627022E-01  1.098680E+01 -5.744056E-13  4.837404E-01
         2   5 -1.257449E+02 -4.350652E+00 -5.627022E-01  1.098680E+01 -5.188533E-13 -6.416641E-01
         2   6  1.463376E+01 -8.833507E+00  5.627022E-01 -1.098680E+01  4.992868E-13 -4.837404E-01
         2   7 -1.257449E+02 -4.350652E+00 -5.627022E-01  1.098680E+01 -9.512310E-13  6.416641E-01
         2   8  1.463376E+01 -8.833507E+00  5.627022E-01 -1.098680E+01  1.167967E-12  4.837404E-01
         3   1 -3.121973E+00 -1.727134E+01  1.956883E-01 -2.528496E+01  6.844896E-01 -3.132383E-01
         3   2 -5.169021E+00  1.092681E+00  2.071847E-01  7.627085E-01 -1.834084E-01 -3.960546E-01
         3   3 -3.121973E+00 -1.727134E+01  1.956883E-01 -2.528496E+01 -6.844896E-01  3.132383E-01
         3   4 -5.169021E+00  1.092681E+00  2.071847E-01  7.627085E-01  1.834084E-01  3.960546E-01
         3   5 -6.774771E+01  2.597264E+01  1.281416E+00 -1.855667E+01  6.844896E-01  1.339104E+00
         3   6  1.143400E+00  1.657433E+01 -1.357840E+00  7.002764E+00 -1.834084E-01  1.432522E+00
         3   7 -6.774771E+01  2.597264E+01  1.281416E+00 -1.855667E+01 -6.844896E-01 -1.339104E+00
         3   8  1.143400E+00  1.657433E+01 -1.357840E+00  7.002764E+00  1.834084E-01 -1.432522E+00
         4   1  6.637546E+01  7.391879E+01  1.446549E+01  1.130971E+02 -1.582030E+00  1.818214E+00
         4   2 -2.526213E+01  4.725213E+01 -1.128075E+01  1.035553E+02  4.235977E+00  1.818214E+00
         4   3  6.637546E+01  7.391879E+01  1.446549E+01  1.130971E+02  1.582030E+00 -1.818214E+00
         4   4 -2.526213E+01  4.725213E+01 -1.128075E+01  1.035553E+02 -4.235977E+00 -1.818214E+00
         4   5  2.373917E+01 -7.391879E+01 -4.287826E+00  2.023620E+01 -1.582030E+00 -6.873624E-01
         4   6  3.056613E+01 -4.725213E+01  1.103090E+00  2.977807E+01  4.235977E+00 -6.873624E-01
         4   7  2.373917E+01 -7.391879E+01 -4.287826E+00  2.023620E+01  1.582030E+00  6.873624E-01
         4   8  3.056613E+01 -4.725213E+01  1.103090E+00  2.977807E+01 -4.235977E+00  6.873624E-01
         5   1  2.373917E+01 -7.391879E+01 -4.287826E+00 -2.023620E+01  1.582030E+00 -6.873624E-01
         5   2  3.056613E+01 -4.725213E+01  1.103090E+00 -2.977807E+01 -4.235977E+00 -6.873624E-01
         5   3  2.373917E+01 -7.391879E+01 -4.287826E+00 -2.023620E+01 -1.582030E+00  6.873624E-01
         5   4  3.056613E+01 -4.725213E+01  1.103090E+00 -2.977807E+01  4.235977E+00  6.873624E-01
         5   5  6.637546E+01  7.391879E+01  1.446549E+01 -1.130971E+02  1.582030E+00  1.818214E+00
         5   6 -2.526213E+01  4.725213E+01 -1.128075E+01 -1.035553E+02 -4.235977E+00  1.818214E+00
         5   7  6.637546E+01  7.391879E+01  1.446549E+01 -1.130971E+02 -1.582030E+00 -1.818214E+00
         5   8 -2.526213E+01  4.725213E+01 -1.128075E+01 -1.035553E+02  4.235977E+00 -1.818214E+00
         6   1  5.975209E+01  4.231549E+01 -4.543651E-01 -3.498665E+01  5.875676E-02  2.552135E-01
         6   2  5.975209E+01  4.231549E+01 -4.543651E-01  3.498665E+01  5.875676E-02 -2.552135E-01
         6   3  5.975209E+01  4.231549E+01 -4.543651E-01 -3.498665E+01 -5.875676E-02 -2.552135E-01
         6   4  5.975209E+01  4.231549E+01 -4.543651E-01  3.498665E+01 -5.875676E-02  2.552135E-01
         6   5 -7.598906E-01 -9.522658E+01  1.279163E-01 -1.653653E+01  5.875676E-02 -1.261693E-01
         6   6 -7.598906E-01 -9.522658E+01  1.279163E-01  1.653653E+01  5.875676E-02  1.261693E-01
         6   7 -7.598906E-01 -9.522658E+01  1.279163E-01 -1.653653E+01 -5.875676E-02  1.261693E-01
         6   8 -7.598906E-01 -9.522658E+01  1.279163E-01  1.653653E+01 -5.875676E-02 -1.261693E-01
         7   1  1.111111E+02  5.700377E+01 -2.117417E-12  3.477472E+01  4.422294E-13  2.696597E-01
         7   2  1.111111E+02  5.700377E+01 -8.455459E-12 -3.477472E+01 -1.437246E-12 -2.696597E-01
         7   3  1.111111E+02  5.700377E+01 -2.287948E-12  3.477472E+01 -1.059599E-12 -2.696597E-01
         7   4  1.111111E+02  5.700377E+01 -7.858603E-12 -3.477472E+01  1.254443E-12  2.696597E-01
         7   5  1.111111E+02 -4.092687E+00 -1.151079E-12 -9.317857E+00 -1.256632E-12 -7.225511E-02
         7   6  1.111111E+02 -4.092687E+00  4.959588E-12  9.317857E+00 -4.619327E-12  7.225511E-02
         7   7  1.111111E+02 -4.092687E+00  5.897505E-13 -9.317857E+00  7.968886E-13  7.225511E-02
         7   8  1.111111E+02 -4.092687E+00  4.696687E-12  9.317857E+00  4.912687E-12 -7.225511E-02
         8   1  1.111111E+02 -4.092687E+00  2.309264E-12  9.317857E+00  4.378509E-13 -7.225511E-02
         8   2  1.111111E+02 -4.092687E+00  4.575895E-12 -9.317857E+00  4.831684E-12  7.225511E-02
         8   3  1.111111E+02 -4.092687E+00  1.342926E-12  9.317857E+00  2.539535E-13  7.225511E-02
         8   4  1.111111E+02 -4.092687E+00  4.575895E-12 -9.317857E+00 -3.776464E-12 -7.225511E-02
         8   5  1.111111E+02  5.700377E+01 -2.003731E-12 -3.477472E+01  1.195333E-12  2.696597E-01
         8   6  1.111111E+02  5.700377E+01 -7.617018E-12  3.477472E+01  1.092985E-12 -2.696597E-01
         8   7  1.111111E+02  5.700377E+01 -2.060574E-12 -3.477472E+01 -4.903930E-13 -2.696597E-01
         8   8  1.111111E+02  5.700377E+01 -7.673862E-12  3.477472E+01 -5.626384E-13  2.696597E-01
         9   1 -7.598906E-01 -9.522658E+01  1.279163E-01  1.653653E+01 -5.875676E-02 -1.261693E-01
         9   2 -7.598906E-01 -9.522658E+01  1.279163E-01 -1.653653E+01 -5.875676E-02  1.261693E-01
         9   3 -7.598906E-01 -9.522658E+01  1.279163E-01  1.653653E+01  5.875676E-02  1.261693E-01
         9   4 -7.598906E-01 -9.522658E+01  1.279163E-01 -1.653653E+01  5.875676E-02 -1.261693E-01
         9   5  5.975209E+01  4.231549E+01 -4.543651E-01  3.498665E+01 -5.875676E-02  2.552135E-01
         9   6  5.975209E+01  4.231549E+01 -4.543651E-01 -3.498665E+01 -5.875676E-02 -2.552135E-01
         9   7  5.975209E+01  4.231549E+01 -4.543651E-01  3.498665E+01  5.875676E-02 -2.552135E-01
         9   8  5.975209E+01  4.231549E+01 -4.543651E-01 -3.498665E+01  5.875676E-02  2.552135E-01
        10   1 -2.526213E+01  4.725213E+01 -1.128075E+01 -1.035553E+02  4.235977E+00 -1.818214E+00
        10   2  6.637546E+01  7.391879E+01  1.446549E+01 -1.130971E+02 -1.582030E+00 -1.818214E+00
        10   3 -2.526213E+01  4.725213E+01 -1.128075E+01 -1.035553E+02 -4.235977E+00  1.818214E+00
        10   4  6.637546E+01  7.391879E+01  1.446549E+01 -1.130971E+02  1.582030E+00  1.818214E+00
        10   5  3.056613E+01 -4.725213E+01  1.103090E+00 -2.977807E+01  4.235977E+00  6.873624E-01
        10   6  2.373917E+01 -7.391879E+01 -4.287826E+00 -2.023620E+01 -1.582030E+00  6.873624E-01
        10   7  3.056613E+01 -4.725213E+01  1.103090E+00 -2.977807E+01 -4.235977E+00 -6.873624E-01
        10   8  2.373917E+01 -7.391879E+01 -4.287826E+00 -2.023620E+01  1.582030E+00 -6.873624E-01
        11   1  3.056613E+01 -4.725213E+01  1.103090E+00  2.977807E+01 -4.235977E+00  6.873624E-01
        11   2  2.373917E+01 -7.391879E+01 -4.287826E+00  2.023620E+01  1.582030E+00  6.873624E-01
        11   3  3.056613E+01 -4.725213E+01  1.103090E+00  2.977807E+01  4.235977E+00 -6.873624E-01
        11   4  2.373917E+01 -7.391879E+01 -4.287826E+00  2.023620E+01 -1.582030E+00 -6.873624E-01
        11   5 -2.526213E+01  4.725213E+01 -1.128075E+01  1.035553E+02 -4.235977E+00 -1.818214E+00
        11   6  6.637546E+01  7.391879E+01  1.446549E+01  1.130971E+02  1.582030E+00 -1.818214E+00
        11   7 -2.526213E+01  4.725213E+01 -1.128075E+01  1.035553E+02  4.235977E+00  1.818214E+00
        11   8  6.637546E+01  7.391879E+01  1.446549E+01  1.130971E+02 -1.582030E+00  1.818214E+00
        12   1  1.143400E+00  1.657433E+01 -1.357840E+00  7.002764E+00  1.834084E-01 -1.432522E+00
        12   2 -6.774771E+01  2.597264E+01  1.281416E+00 -1.855667E+01 -6.844896E-01 -1.339104E+00
        12   3  1.143400E+00  1.657433E+01 -1.357840E+00  7.002764E+00 -1.834084E-01  1.432522E+00
        12   4 -6.774771E+01  2.597264E+01  1.281416E+00 -1.855667E+01  6.844896E-01  1.339104E+00
        12   5 -5.169021E+00  1.092681E+00  2.071847E-01  7.627085E-01  1.834084E-01  3.960546E-01
        12   6 -3.121973E+00 -1.727134E+01  1.956883E-01 -2.528496E+01 -6.844896E-01  3.132383E-01
        12   7 -5.169021E+00  1.092681E+00  2.071847E-01  7.627085E-01 -1.834084E-01 -3.960546E-01
        12   8 -3.121973E+00 -1.727134E+01  1.956883E-01 -2.528496E+01  6.844896E-01 -3.132383E-01
        13   1  1.463376E+01 -8.833507E+00  5.627022E-01 -1.098680E+01 -6.348838E-14  4.837404E-01
        13   2 -1.257449E+02 -4.350652E+00 -5.627022E-01  1.098680E+01  1.532478E-14  6.416641E-01
        13   3  1.463376E+01 -8.833507E+00  5.627022E-01 -1.098680E+01 -6.731957E-13 -4.837404E-01
        13   4 -1.257449E+02 -4.350652E+00 -5.627022E-01  1.098680E+01  7.706175E-13 -6.416641E-01
        13   5  1.463376E+01 -8.833507E+00  5.627022E-01  1.098680E+01  7.126023E-13  4.837404E-01
        13   6 -1.257449E+02 -4.350652E+00 -5.627022E-01 -1.098680E+01 -5.232318E-13  6.416641E-01
        13   7  1.463376E+01 -8.833507E+00  5.627022E-01  1.098680E+01  3.196311E-13 -4.837404E-01
        13   8 -1.257449E+02 -4.350652E+00 -5.627022E-01 -1.098680E+01 -3.929712E-13 -6.416641E-01
        14   1 -5.169021E+00  1.092681E+00  2.071847E-01 -7.627085E-01 -1.834084E-01  3.960546E-01
        14   2 -3.121973E+00 -1.727134E+01  1.956883E-01  2.528496E+01  6.844896E-01  3.132383E-01
        14   3 -5.169021E+00  1.092681E+00  2.071847E-01 -7.627085E-01  1.834084E-01 -3.960546E-01
        14   4 -3.121973E+00 -1.727134E+01  1.956883E-01  2.528496E+01 -6.844896E-01 -3.132383E-01
        14   5  1.143400E+00  1.657433E+01 -1.357840E+00 -7.002764E+00 -1.834084E-01 -1.432522E+00
        14   6 -6.774771E+01  2.597264E+01  1.281416E+00  1.855667E+01  6.844896E-01 -1.339104E+00
        14   7  1.143400E+00  1.657433E+01 -1.357840E+00 -7.002764E+00  1.834084E-01  1.432522E+00
        14   8 -6.774771E+01  2.597264E+01  1.281416E+00  1.855667E+01 -6.844896E-01  1.339104E+00
