
 displacements (vx,vy,vz) for set NALL and time  0.1000000E+01

         1  3.943836E-03  5.023207E-04  0.000000E+00
         2  3.944103E-03 -5.023186E-04  0.000000E+00
         3  4.920260E-03 -5.020198E-04  0.000000E+00
         4  4.920001E-03  5.025474E-04  0.000000E+00
         5  3.943405E-03  0.000000E+00  0.000000E+00
         6  4.438344E-03 -5.019024E-04  0.000000E+00
         7  4.919778E-03  2.628015E-07  0.000000E+00
         8  4.438082E-03  5.021690E-04  0.000000E+00
         9  4.911272E-03 -6.267581E-05  0.000000E+00
        10  4.911530E-03  6.216778E-05  0.000000E+00
        11  4.761338E-03  6.243362E-05  0.000000E+00
        12  4.761087E-03 -6.243202E-05  0.000000E+00
        13  4.911047E-03 -2.550483E-07  0.000000E+00
        14  4.829187E-03  6.205103E-05  0.000000E+00
        15  4.760578E-03  0.000000E+00  0.000000E+00
        16  4.828933E-03 -6.230250E-05  0.000000E+00

 stresses (elem, integ.pnt.,sxx,syy,szz,sxy,sxz,syz) for set EALL and time  0.1000000E+01

         1   1 -1.283512E+01 -3.348754E-01 -9.329257E+02 -2.164345E-01 -1.244456E+01  2.925831E-03
         1   2 -1.231461E+01 -1.175879E-01 -9.326998E+02  6.129853E-05 -1.244845E+01 -7.851796E-07
         1   3 -1.283460E+01 -3.348182E-01 -9.328814E+02  2.164799E-01 -1.244397E+01 -2.926357E-03
         1   4 -4.498939E+01  2.040591E-01 -8.973064E+02 -1.090775E-03 -1.153232E+01  1.476818E-05
         1   5 -4.445913E+01  4.311359E-01 -8.970598E+02  1.580416E-04 -1.153615E+01 -2.093625E-06
         1   6 -4.498835E+01  2.040399E-01 -8.972642E+02  1.329724E-03 -1.153177E+01 -1.791260E-05
         1   7 -7.922312E+01 -3.332825E-01 -8.675422E+02  2.136421E-01 -1.066258E+01 -2.888036E-03
         1   8 -7.868522E+01 -9.851796E-02 -8.672777E+02  2.960469E-05 -1.066634E+01 -3.574747E-07
         1   9 -7.922144E+01 -3.332587E-01 -8.675016E+02 -2.136600E-01 -1.066205E+01  2.888362E-03
         1  10 -1.267247E+01 -3.374516E-01 -9.330965E+02 -2.164839E-01  5.539594E-13  6.707721E-14
         1  11 -1.215122E+01 -1.194475E-01 -9.328699E+02  6.129143E-05  1.644476E-12 -4.454610E-20
         1  12 -1.267196E+01 -3.373944E-01 -9.330522E+02  2.165293E-01  1.189033E-13 -1.301037E-14
         1  13 -4.483286E+01  2.045910E-01 -8.974617E+02 -1.092853E-03  2.216381E-12 -4.355461E-15
         1  14 -4.430266E+01  4.315874E-01 -8.972153E+02  1.580371E-04 -2.212040E-12  7.019793E-21
         1  15 -4.483183E+01  2.045718E-01 -8.974195E+02  1.331786E-03  6.904436E-13  7.810793E-14
         1  16 -7.907393E+01 -3.312975E-01 -8.676843E+02  2.136874E-01  5.367839E-13  6.280625E-14
         1  17 -7.853528E+01 -9.581311E-02 -8.674192E+02  2.960265E-05 -2.502556E-12 -2.334806E-20
         1  18 -7.907225E+01 -3.312736E-01 -8.676438E+02 -2.137052E-01 -1.537745E-13 -3.239799E-14
         1  19 -1.283512E+01 -3.348754E-01 -9.329257E+02 -2.164345E-01  1.244456E+01 -2.925831E-03
         1  20 -1.231461E+01 -1.175879E-01 -9.326998E+02  6.129853E-05  1.244845E+01  7.851796E-07
         1  21 -1.283460E+01 -3.348182E-01 -9.328814E+02  2.164799E-01  1.244397E+01  2.926357E-03
         1  22 -4.498939E+01  2.040591E-01 -8.973064E+02 -1.090775E-03  1.153232E+01 -1.476818E-05
         1  23 -4.445913E+01  4.311359E-01 -8.970598E+02  1.580416E-04  1.153615E+01  2.093625E-06
         1  24 -4.498835E+01  2.040399E-01 -8.972642E+02  1.329724E-03  1.153177E+01  1.791260E-05
         1  25 -7.922312E+01 -3.332825E-01 -8.675422E+02  2.136421E-01  1.066258E+01  2.888036E-03
         1  26 -7.868522E+01 -9.851796E-02 -8.672777E+02  2.960469E-05  1.066634E+01  3.574747E-07
         1  27 -7.922144E+01 -3.332587E-01 -8.675016E+02 -2.136600E-01  1.066205E+01 -2.888362E-03
         2   1 -7.427938E+01  3.219672E-01  9.548823E+02  1.985329E-01  1.391929E+01 -2.683746E-03
         2   2 -7.477038E+01  1.149632E-01  9.547055E+02  2.946837E-04  1.392347E+01 -3.940650E-06
         2   3 -7.427932E+01  3.206786E-01  9.549222E+02 -1.981616E-01  1.391983E+01  2.678813E-03
         2   4 -4.168301E+01 -1.725967E-01  9.177347E+02  1.373428E-03  1.298020E+01 -1.853366E-05
         2   5 -4.218218E+01 -3.871349E-01  9.175384E+02  3.100873E-04  1.298430E+01 -4.149435E-06
         2   6 -4.168285E+01 -1.731696E-01  9.177729E+02 -9.715328E-04  1.298072E+01  1.318582E-05
         2   7 -7.098375E+00  3.198351E-01  8.862195E+02 -1.962210E-01  1.208226E+01  2.652560E-03
         2   8 -7.605140E+00  9.833369E-02  8.860052E+02  2.574894E-04  1.208628E+01 -3.438824E-06
         2   9 -7.098034E+00  3.200556E-01  8.862563E+02  1.965175E-01  1.208275E+01 -2.656484E-03
         2  10 -7.446226E+01  3.242290E-01  9.550728E+02  1.985764E-01 -5.667843E-13 -1.101703E-14
         2  11 -7.495327E+01  1.172460E-01  9.548960E+02  2.947109E-04  3.009915E-13  4.657908E-20
         2  12 -7.446221E+01  3.229405E-01  9.551126E+02 -1.982050E-01  5.623845E-13  8.733642E-15
         2  13 -4.185870E+01 -1.727197E-01  9.179100E+02  1.372813E-03  2.266579E-12  1.321307E-14
         2  14 -4.235787E+01 -3.872384E-01  9.177138E+02  3.101088E-04 -1.128884E-12  6.928440E-21
         2  15 -4.185854E+01 -1.732926E-01  9.179482E+02 -9.708950E-04  2.833226E-13 -2.647577E-14
         2  16 -7.267160E+00  3.174894E-01  8.863805E+02 -1.962657E-01  2.708497E-20 -1.325572E-14
         2  17 -7.773936E+00  9.600618E-02  8.861663E+02  2.575053E-04 -8.322097E-13  4.185282E-20
         2  18 -7.266826E+00  3.177099E-01  8.864173E+02  1.965622E-01  1.015669E-12 -1.163927E-15
         2  19 -7.427938E+01  3.219672E-01  9.548823E+02  1.985329E-01 -1.391929E+01  2.683746E-03
         2  20 -7.477038E+01  1.149632E-01  9.547055E+02  2.946837E-04 -1.392347E+01  3.940650E-06
         2  21 -7.427932E+01  3.206786E-01  9.549222E+02 -1.981616E-01 -1.391983E+01 -2.678813E-03
         2  22 -4.168301E+01 -1.725967E-01  9.177347E+02  1.373428E-03 -1.298020E+01  1.853366E-05
         2  23 -4.218218E+01 -3.871349E-01  9.175384E+02  3.100873E-04 -1.298430E+01  4.149435E-06
         2  24 -4.168285E+01 -1.731696E-01  9.177729E+02 -9.715328E-04 -1.298072E+01 -1.318582E-05
         2  25 -7.098375E+00  3.198351E-01  8.862195E+02 -1.962210E-01 -1.208226E+01 -2.652560E-03
         2  26 -7.605140E+00  9.833369E-02  8.860052E+02  2.574894E-04 -1.208628E+01  3.438824E-06
         2  27 -7.098034E+00  3.200556E-01  8.862563E+02  1.965175E-01 -1.208275E+01  2.656484E-03
