
 displacements (vx,vy,vz) for set NALL and time  0.1000000E+01

         1 -4.734711E-05  7.496152E-07  0.000000E+00
         2 -4.734711E-05 -7.496152E-07  0.000000E+00
         3 -4.616285E-05 -7.494455E-07  0.000000E+00
         4 -4.616285E-05  7.494455E-07  0.000000E+00
         5 -4.734407E-05  0.000000E+00  0.000000E+00
         6 -4.667701E-05 -7.465758E-07  0.000000E+00
         7 -4.615647E-05 -1.207377E-15  0.000000E+00
         8 -4.667701E-05  7.465758E-07  0.000000E+00
         9  5.373718E-05 -6.814658E-07  0.000000E+00
        10  5.373718E-05  6.814658E-07  0.000000E+00
        11  5.209977E-05  6.813252E-07  0.000000E+00
        12  5.209977E-05 -6.813252E-07  0.000000E+00
        13  5.373336E-05  1.060649E-15  0.000000E+00
        14  5.283983E-05  6.786871E-07  0.000000E+00
        15  5.209290E-05  0.000000E+00  0.000000E+00
        16  5.283983E-05 -6.786871E-07  0.000000E+00

 stresses (elem, integ.pnt.,sxx,syy,szz,sxy,sxz,syz) for set EALL and time  0.1000000E+01

         1   1 -1.415863E-01 -3.628898E-03 -1.034758E+01 -2.395231E-03 -1.380401E-01  3.237903E-05
         1   2 -1.358392E-01 -1.224926E-03 -1.034532E+01  4.199068E-13 -1.380863E-01 -6.365171E-15
         1   3 -1.415863E-01 -3.628898E-03 -1.034758E+01  2.395231E-03 -1.380401E-01 -3.237903E-05
         1   4 -4.960777E-01  2.325345E-03 -9.947602E+00 -1.169446E-05 -1.278852E-01  1.580072E-07
         1   5 -4.902295E-01  4.830434E-03 -9.945100E+00 -4.915832E-13 -1.279304E-01  6.630519E-15
         1   6 -4.960777E-01  2.325345E-03 -9.947602E+00  1.169446E-05 -1.278852E-01 -1.580072E-07
         1   7 -8.739407E-01 -3.635858E-03 -9.613586E+00  2.371794E-03 -1.182103E-01 -3.206238E-05
         1   8 -8.679989E-01 -1.037191E-03 -9.610866E+00  3.938030E-13 -1.182546E-01 -6.488187E-15
         1   9 -8.739407E-01 -3.635858E-03 -9.613586E+00 -2.371794E-03 -1.182103E-01  3.206238E-05
         1  10 -1.397779E-01 -3.653512E-03 -1.034948E+01 -2.395764E-03  8.755888E-15 -1.709396E-17
         1  11 -1.340308E-01 -1.249788E-03 -1.034721E+01  4.105338E-13  1.744337E-14  9.227415E-31
         1  12 -1.397779E-01 -3.653512E-03 -1.034948E+01  2.395764E-03  8.755888E-15  1.710382E-17
         1  13 -4.943464E-01  2.326813E-03 -9.949328E+00 -1.170415E-05  1.751182E-14  2.052137E-16
         1  14 -4.884981E-01  4.831672E-03 -9.946827E+00 -4.930881E-13  2.619933E-14  6.660036E-31
         1  15 -4.943464E-01  2.326813E-03 -9.949328E+00  1.170415E-05  1.094489E-14 -1.710150E-16
         1  16 -8.722832E-01 -3.610251E-03 -9.615158E+00  2.372308E-03 -4.241145E-15  1.539113E-16
         1  17 -8.663413E-01 -1.011798E-03 -9.612439E+00  3.975149E-13  1.368188E-16 -1.635001E-30
         1  18 -8.722832E-01 -3.610251E-03 -9.615158E+00 -2.372308E-03 -4.531885E-15 -5.130976E-17
         1  19 -1.415863E-01 -3.628898E-03 -1.034758E+01 -2.395231E-03  1.380401E-01 -3.237903E-05
         1  20 -1.358392E-01 -1.224926E-03 -1.034532E+01  4.198555E-13  1.380863E-01  6.373722E-15
         1  21 -1.415863E-01 -3.628898E-03 -1.034758E+01  2.395231E-03  1.380401E-01  3.237903E-05
         1  22 -4.960777E-01  2.325345E-03 -9.947602E+00 -1.169446E-05  1.278852E-01 -1.580072E-07
         1  23 -4.902295E-01  4.830434E-03 -9.945100E+00 -4.904885E-13  1.279304E-01 -6.664723E-15
         1  24 -4.960777E-01  2.325345E-03 -9.947602E+00  1.169446E-05  1.278852E-01  1.580072E-07
         1  25 -8.739407E-01 -3.635858E-03 -9.613586E+00  2.371794E-03  1.182103E-01  3.206238E-05
         1  26 -8.679989E-01 -1.037191E-03 -9.610866E+00  3.937688E-13  1.182546E-01  6.740434E-15
         1  27 -8.739407E-01 -3.635858E-03 -9.613586E+00 -2.371794E-03  1.182103E-01 -3.206238E-05
         2   1 -8.102298E-01  3.566045E-03  1.034809E+01  2.146604E-03  1.509145E-01 -2.901795E-05
         2   2 -8.155847E-01  1.320710E-03  1.034596E+01  3.195407E-13  1.509574E-01 -4.142579E-15
         2   3 -8.102298E-01  3.566045E-03  1.034809E+01 -2.146604E-03  1.509145E-01  2.901795E-05
         2   4 -4.544495E-01 -1.798608E-03  9.950808E+00  7.210128E-06  1.407745E-01 -9.739494E-08
         2   5 -4.598897E-01 -4.129150E-03  9.948480E+00 -3.600594E-13  1.408166E-01  4.567696E-15
         2   6 -4.544495E-01 -1.798608E-03  9.950808E+00 -7.210129E-06  1.407745E-01  9.739496E-08
         2   7 -7.746078E-02  3.536645E-03  9.613505E+00 -2.132227E-03  1.310714E-01  2.882375E-05
         2   8 -8.298039E-02  1.126692E-03  9.610991E+00  3.113054E-13  1.311128E-01 -3.854085E-15
         2   9 -7.746078E-02  3.536645E-03  9.613505E+00  2.132227E-03  1.310714E-01 -2.882375E-05
         2  10 -8.122122E-01  3.590723E-03  1.035015E+01  2.147092E-03  8.621260E-15  8.552826E-17
         2  11 -8.175671E-01  1.345616E-03  1.034802E+01  3.310508E-13 -1.300031E-14 -1.522263E-30
         2  12 -8.122122E-01  3.590723E-03  1.035015E+01 -2.147092E-03 -4.122481E-15  2.822309E-16
         2  13 -4.563549E-01 -1.799940E-03  9.952709E+00  7.218163E-06  1.710451E-17  2.052558E-16
         2  14 -4.617951E-01 -4.130269E-03  9.950381E+00 -3.573399E-13  2.634263E-14 -8.422317E-31
         2  15 -4.563549E-01 -1.799940E-03  9.952709E+00 -7.218164E-06  2.206622E-15 -2.052643E-16
         2  16 -7.929211E-02  3.511071E-03  9.615251E+00 -2.132699E-03  8.621219E-15  1.710496E-16
         2  17 -8.481181E-02  1.101317E-03  9.612738E+00  3.126396E-13 -4.447446E-15  6.996777E-31
         2  18 -7.929211E-02  3.511071E-03  9.615251E+00  2.132699E-03  1.761867E-15  1.710056E-17
         2  19 -8.102298E-01  3.566045E-03  1.034809E+01  2.146604E-03 -1.509145E-01  2.901795E-05
         2  20 -8.155847E-01  1.320710E-03  1.034596E+01  3.196262E-13 -1.509574E-01  3.890266E-15
         2  21 -8.102298E-01  3.566045E-03  1.034809E+01 -2.146604E-03 -1.509145E-01 -2.901795E-05
         2  22 -4.544495E-01 -1.798608E-03  9.950808E+00  7.210128E-06 -1.407745E-01  9.739494E-08
         2  23 -4.598897E-01 -4.129150E-03  9.948480E+00 -3.600594E-13 -1.408166E-01 -4.619010E-15
         2  24 -4.544495E-01 -1.798608E-03  9.950808E+00 -7.210129E-06 -1.407745E-01 -9.739496E-08
         2  25 -7.746078E-02  3.536645E-03  9.613505E+00 -2.132227E-03 -1.310714E-01 -2.882375E-05
         2  26 -8.298039E-02  1.126692E-03  9.610991E+00  3.113909E-13 -1.311128E-01  3.631709E-15
         2  27 -7.746078E-02  3.536645E-03  9.613505E+00  2.132227E-03 -1.310714E-01  2.882375E-05
