
 displacements (vx,vy,vz) for set NALL and time  0.1000000E+01

         1  5.421199E-16  7.632381E-18  3.881570E-06
         2  3.470911E-15  2.802785E-15 -3.624397E-02
         3  2.408013E-16  2.584565E-15 -4.384691E-02
         4 -1.794730E-16 -2.277010E-19  5.398949E-06
         5  1.735699E-15  1.209333E-15 -7.522689E-03
         6  1.571659E-15  2.615895E-15 -4.222623E-02
         7  2.068658E-16  8.508010E-16 -1.156710E-02
         8  0.000000E+00  0.000000E+00  0.000000E+00
         9 -2.808355E-15  2.933865E-15 -3.624397E-02
        10 -1.344253E-16 -3.162256E-18  3.881570E-06
        11 -1.035847E-15  2.699243E-15 -4.222623E-02
        12 -1.427135E-15  1.101414E-15 -7.522688E-03
        13  0.000000E+00  0.000000E+00  0.000000E+00
        14  5.403555E-15  7.931888E-15 -1.622128E-01
        15  1.707618E-16  6.651143E-15 -1.715007E-01
        16  5.048913E-15  4.918700E-15 -8.777276E-02
        17  2.253839E-15  7.037854E-15 -1.701385E-01
        18 -2.250804E-16  4.695337E-15 -9.718064E-02
        19 -4.420943E-15  7.138807E-15 -1.622128E-01
        20 -1.365444E-15  6.742152E-15 -1.701385E-01
        21 -3.281663E-15  4.304879E-15 -8.777276E-02

 forces (fx,fy,fz) for set NALL and time  0.1000000E+01

         1 -2.320338E-12 -6.102063E-13 -1.556567E-02
         2  3.924829E-13  1.015481E-12  5.226781E-11
         3 -4.199809E-13  2.078009E-12  2.844557E-11
         4 -9.361401E-13 -4.034954E-13 -8.835275E-03
         5  2.301408E-13  5.772327E-13 -1.106225E-11
         6 -4.345621E-13 -1.388056E-12 -7.841499E-11
         7 -5.774873E-14 -4.664515E-13 -1.821758E-11
         8 -3.919420E-12 -5.686007E-13  1.998331E-02
         9 -1.027126E-12 -7.754431E-14  8.061680E-11
        10  2.177716E-12 -8.614776E-13 -1.556567E-02
        11  2.512414E-12  8.947088E-13 -2.090004E-11
        12  7.310116E-13 -2.883527E-13  7.168710E-13
        13  2.896794E-12 -4.802825E-13  1.998331E-02
        14  1.504685E-12 -2.753266E-14 -1.939071E-10
        15 -2.539580E-12  6.865803E-13 -5.921465E-11
        16  1.565085E-12  5.470485E-13  1.907134E-11
        17  2.102762E-13  5.916240E-13 -2.070509E-11
        18  7.609781E-13  9.407822E-13 -2.820788E-11
        19 -1.199485E-12  7.475479E-13 -1.171011E-11
        20  1.464384E-13 -8.284276E-13 -5.351006E-11
        21 -2.729483E-13 -2.077755E-12 -4.212061E-12

 stresses (elem, integ.pnt.,sxx,syy,szz,sxy,sxz,syz) for set EALL and time  0.1000000E+01

         1   1 -3.873356E+02 -9.342951E+01  6.627299E+00 -4.641321E+01  6.629476E+00  8.915509E-01
         1   2 -4.876213E+02 -7.884332E+01 -2.452240E+01 -6.107838E+01 -3.354115E-01  1.539456E+00
         1   3 -4.786898E+02 -1.296633E+02 -6.459208E+00 -1.381477E+01 -6.629477E+00 -8.422474E+00
         1   4 -3.784041E+02 -4.984589E+01  2.389508E+01  7.174362E+00  3.354117E-01  1.992124E+01
         1   5  3.873356E+02  9.342951E+01 -6.627299E+00  4.641321E+01  6.629476E+00  8.915509E-01
         1   6  4.876213E+02  7.884332E+01  2.452240E+01  6.107838E+01 -3.354115E-01  1.539456E+00
         1   7  4.786898E+02  1.296633E+02  6.459208E+00  1.381477E+01 -6.629477E+00 -8.422474E+00
         1   8  3.784041E+02  4.984589E+01 -2.389508E+01 -7.174362E+00  3.354117E-01  1.992124E+01
         2   1 -4.786898E+02 -1.296633E+02 -6.459208E+00  1.381477E+01 -6.629475E+00  8.422474E+00
         2   2 -3.784041E+02 -4.984589E+01  2.389508E+01 -7.174361E+00  3.354112E-01 -1.992124E+01
         2   3 -3.873356E+02 -9.342951E+01  6.627299E+00  4.641321E+01  6.629476E+00 -8.915507E-01
         2   4 -4.876213E+02 -7.884332E+01 -2.452240E+01  6.107838E+01 -3.354114E-01 -1.539456E+00
         2   5  4.786898E+02  1.296633E+02  6.459208E+00 -1.381477E+01 -6.629475E+00  8.422474E+00
         2   6  3.784041E+02  4.984589E+01 -2.389508E+01  7.174361E+00  3.354112E-01 -1.992124E+01
         2   7  3.873356E+02  9.342951E+01 -6.627299E+00 -4.641321E+01  6.629476E+00 -8.915507E-01
         2   8  4.876213E+02  7.884332E+01  2.452240E+01 -6.107838E+01 -3.354114E-01 -1.539456E+00
         3   1 -3.893957E+02  4.916491E+00  2.450608E+01 -8.411623E+00 -1.000841E+00 -1.358116E+00
         3   2 -4.726291E+02  1.714086E+01 -6.566385E+00  1.257940E+02  4.849243E+00  1.772519E+00
         3   3 -4.766297E+02 -7.578325E+01 -2.387876E+01 -1.814901E+01  1.000841E+00 -1.847301E+01
         3   4 -3.933963E+02 -4.116592E+01  6.398294E+00 -1.251867E+02 -4.849243E+00  6.358441E+00
         3   5  3.893957E+02 -4.916491E+00 -2.450608E+01  8.411623E+00 -1.000841E+00 -1.358116E+00
         3   6  4.726291E+02 -1.714086E+01  6.566385E+00 -1.257940E+02  4.849243E+00  1.772519E+00
         3   7  4.766297E+02  7.578325E+01  2.387876E+01  1.814901E+01  1.000841E+00 -1.847301E+01
         3   8  3.933963E+02  4.116592E+01 -6.398294E+00  1.251867E+02 -4.849243E+00  6.358441E+00
         4   1 -4.766297E+02 -7.578324E+01 -2.387876E+01  1.814901E+01  1.000841E+00  1.847301E+01
         4   2 -3.933963E+02 -4.116592E+01  6.398294E+00  1.251867E+02 -4.849243E+00 -6.358441E+00
         4   3 -3.893957E+02  4.916495E+00  2.450608E+01  8.411623E+00 -1.000841E+00  1.358116E+00
         4   4 -4.726291E+02  1.714087E+01 -6.566385E+00 -1.257940E+02  4.849243E+00 -1.772519E+00
         4   5  4.766297E+02  7.578324E+01  2.387876E+01 -1.814901E+01  1.000841E+00  1.847301E+01
         4   6  3.933963E+02  4.116592E+01 -6.398294E+00 -1.251867E+02 -4.849243E+00 -6.358441E+00
         4   7  3.893957E+02 -4.916495E+00 -2.450608E+01 -8.411623E+00 -1.000841E+00  1.358116E+00
         4   8  4.726291E+02 -1.714087E+01  6.566385E+00  1.257940E+02  4.849243E+00 -1.772519E+00

 displacements (vx,vy,vz) for set NALL and time  0.2000000E+01

         1  1.047252E-15  5.119170E-18  9.141595E-06
         2  5.947391E-15  3.759634E-15 -7.462992E-02
         3  5.149960E-16  3.934423E-15 -8.597135E-02
         4 -3.807963E-16 -4.905919E-19  1.171550E-05
         5  2.870859E-15  1.766382E-15 -1.640149E-02
         6  3.180832E-15  3.730984E-15 -8.397114E-02
         7  5.191160E-16  9.693699E-16 -2.264170E-02
         8  0.000000E+00  0.000000E+00  0.000000E+00
         9 -5.501567E-15  4.017728E-15 -7.462992E-02
        10 -3.155746E-16  7.589415E-19  9.141595E-06
        11 -2.313687E-15  3.880549E-15 -8.397114E-02
        12 -2.681449E-15  1.482646E-15 -1.640149E-02
        13  0.000000E+00  0.000000E+00  0.000000E+00
        14  9.703935E-15  1.334118E-14 -2.871676E-01
        15  7.739035E-16  1.141748E-14 -2.975445E-01
        16  9.063496E-15  7.911532E-15 -1.688586E-01
        17  4.118234E-15  1.181920E-14 -2.956602E-01
        18 -3.287301E-16  7.761356E-15 -1.809331E-01
        19 -9.024140E-15  1.277797E-14 -2.871676E-01
        20 -2.604687E-15  1.181269E-14 -2.956602E-01
        21 -6.589347E-15  6.911789E-15 -1.688586E-01

 forces (fx,fy,fz) for set NALL and time  0.2000000E+01

         1 -4.015510E-12 -8.168050E-13 -6.283587E-02
         2 -1.075806E-12 -7.159386E-13  5.326922E-11
         3 -7.690515E-13  2.978299E-12  7.379002E-11
         4 -3.207434E-12 -8.012254E-15 -1.494161E-01
         5  4.448681E-13  5.676848E-13 -1.644013E-11
         6  3.960610E-12 -1.078408E-13 -1.336886E-10
         7  3.390789E-12 -4.432739E-13 -4.121042E-11
         8 -6.956213E-12 -3.756440E-13  1.375439E-01
         9 -2.723988E-12 -1.159147E-13  1.006301E-10
        10  3.583300E-12 -1.251332E-12 -6.283587E-02
        11 -6.850076E-13 -1.237134E-12 -8.710548E-11
        12  9.128323E-13 -6.213433E-13 -1.125322E-12
        13  5.784928E-12  4.585776E-13  1.375439E-01
        14  2.398082E-13  1.914818E-12 -3.435785E-10
        15 -2.498501E-12  2.247557E-12 -9.281037E-11
        16  5.885136E-12  3.044627E-12  3.695160E-11
        17 -1.631695E-12 -1.386016E-12 -3.654343E-11
        18 -1.215032E-12 -2.649797E-12 -4.212541E-11
        19 -4.058975E-13  3.654362E-12 -1.793921E-11
        20  3.031686E-12 -4.173460E-12 -9.143902E-11
        21 -2.050984E-12 -9.624870E-13 -6.345202E-12

 stresses (elem, integ.pnt.,sxx,syy,szz,sxy,sxz,syz) for set EALL and time  0.2000000E+01

         1   1 -7.940540E+02 -1.891058E+02  2.628290E+01 -5.121329E+01  6.126962E+00  9.524859E+00
         1   2 -9.479761E+02 -1.676349E+02 -9.831384E+01 -8.120435E+00  3.429551E+00  2.146873E+00
         1   3 -9.379968E+02 -2.565742E+02  7.828490E+00 -4.228167E+01 -6.126963E+00 -2.516866E+01
         1   4 -7.840747E+02 -1.676406E+02 -2.899161E+01 -6.836591E+01 -3.429551E+00  1.889175E+01
         1   5  7.940540E+02  1.891058E+02 -2.628290E+01  5.121329E+01  6.126962E+00  9.524859E+00
         1   6  9.479761E+02  1.676349E+02  9.831384E+01  8.120435E+00  3.429551E+00  2.146873E+00
         1   7  9.379968E+02  2.565742E+02 -7.828490E+00  4.228167E+01 -6.126963E+00 -2.516866E+01
         1   8  7.840747E+02  1.676406E+02  2.899161E+01  6.836591E+01 -3.429551E+00  1.889175E+01
         2   1 -9.379968E+02 -2.565742E+02  7.828491E+00  4.228167E+01 -6.126960E+00  2.516866E+01
         2   2 -7.840747E+02 -1.676406E+02 -2.899161E+01  6.836591E+01 -3.429551E+00 -1.889175E+01
         2   3 -7.940540E+02 -1.891058E+02  2.628290E+01  5.121329E+01  6.126961E+00 -9.524859E+00
         2   4 -9.479761E+02 -1.676349E+02 -9.831384E+01  8.120434E+00  3.429551E+00 -2.146873E+00
         2   5  9.379968E+02  2.565742E+02 -7.828491E+00 -4.228167E+01 -6.126960E+00  2.516866E+01
         2   6  7.840747E+02  1.676406E+02  2.899161E+01 -6.836591E+01 -3.429551E+00 -1.889175E+01
         2   7  7.940540E+02  1.891058E+02 -2.628290E+01 -5.121329E+01  6.126961E+00 -9.524859E+00
         2   8  9.479761E+02  1.676349E+02  9.831384E+01 -8.120434E+00  3.429551E+00 -2.146873E+00
         3   1 -3.748738E+02  9.854185E+01  9.833122E+01  6.349436E+01  1.266385E-01 -3.362986E+00
         3   2 -4.852489E+02  1.258808E+01 -2.634777E+01  1.206197E+02  4.011269E+00  2.415689E+00
         3   3 -4.911516E+02 -4.090992E+01  2.897422E+01 -7.417850E+01 -1.266385E-01 -1.138793E+01
         3   4 -3.807765E+02 -2.070368E+01 -7.763620E+00 -9.608077E+01 -4.011270E+00  4.565966E+00
         3   5  3.748738E+02 -9.854185E+01 -9.833122E+01 -6.349436E+01  1.266386E-01 -3.362986E+00
         3   6  4.852489E+02 -1.258808E+01  2.634777E+01 -1.206197E+02  4.011269E+00  2.415689E+00
         3   7  4.911516E+02  4.090992E+01 -2.897422E+01  7.417850E+01 -1.266385E-01 -1.138793E+01
         3   8  3.807765E+02  2.070368E+01  7.763620E+00  9.608077E+01 -4.011270E+00  4.565966E+00
         4   1 -4.911516E+02 -4.090991E+01  2.897422E+01  7.417850E+01 -1.266390E-01  1.138793E+01
         4   2 -3.807765E+02 -2.070368E+01 -7.763620E+00  9.608077E+01 -4.011269E+00 -4.565966E+00
         4   3 -3.748738E+02  9.854186E+01  9.833122E+01 -6.349436E+01  1.266388E-01  3.362986E+00
         4   4 -4.852489E+02  1.258808E+01 -2.634777E+01 -1.206197E+02  4.011269E+00 -2.415689E+00
         4   5  4.911516E+02  4.090991E+01 -2.897422E+01 -7.417850E+01 -1.266390E-01  1.138793E+01
         4   6  3.807765E+02  2.070368E+01  7.763620E+00 -9.608077E+01 -4.011269E+00 -4.565966E+00
         4   7  3.748738E+02 -9.854186E+01 -9.833122E+01  6.349436E+01  1.266388E-01  3.362986E+00
         4   8  4.852489E+02 -1.258808E+01  2.634777E+01  1.206197E+02  4.011269E+00 -2.415689E+00
