
 displacements (vx,vy,vz) for set NALL and time  0.7200000E+02

         2  0.000000E+00  0.000000E+00  0.000000E+00
        10  2.751184E-03  0.000000E+00  0.000000E+00
        11  1.375592E-03  6.490259E-19  0.000000E+00
        12 -1.844225E-18 -1.375592E-03  0.000000E+00
        13 -4.245998E-18 -2.751184E-03  0.000000E+00
        33  4.648210E-19  3.344844E-18  6.000000E-03
        34  5.485700E-18  4.570484E-18  1.200000E-02
        93  2.751184E-03 -1.375592E-03  0.000000E+00
        95  2.751184E-03 -2.751184E-03  0.000000E+00
        96  1.375592E-03 -2.751184E-03  0.000000E+00
       103  2.751184E-03 -4.461787E-19  6.000000E-03
       105  2.751184E-03  3.162375E-18  1.200000E-02
       106  1.375592E-03  1.252575E-18  1.200000E-02
       132 -2.317008E-18 -2.751184E-03  6.000000E-03
       133  7.600060E-19 -1.375592E-03  1.200000E-02
       134  1.371710E-18 -2.751184E-03  1.200000E-02
       219  2.751184E-03 -2.751184E-03  6.000000E-03
       220  2.751184E-03 -1.375592E-03  1.200000E-02
       222  2.751184E-03 -2.751184E-03  1.200000E-02
       223  1.375592E-03 -2.751184E-03  1.200000E-02

 stresses (elem, integ.pnt.,sxx,syy,szz,sxy,sxz,syz) for set EALL and time  0.7200000E+02

         1   1  3.687155E-09  3.687211E-09  3.063394E+02 -2.551950E-14  5.667492E-15 -7.179275E-14
         1   2  3.687099E-09  3.687099E-09  3.063394E+02 -7.144144E-14  6.210331E-14 -7.071565E-14
         1   3  3.686593E-09  3.686706E-09  3.063394E+02  6.813973E-14 -2.418796E-14  1.011663E-13
         1   4  3.686004E-09  3.685947E-09  3.063394E+02 -8.201235E-14 -5.625189E-14 -1.001422E-13
         1   5  3.686453E-09  3.686425E-09  3.063394E+02 -5.821180E-14  3.107670E-14  1.341593E-14
         1   6  3.686706E-09  3.686762E-09  3.063394E+02 -1.937688E-14  8.268077E-14  6.138194E-14
         1   7  3.687773E-09  3.687633E-09  3.063394E+02 -4.120438E-14 -4.806300E-15 -2.063823E-14
         1   8  3.686425E-09  3.686453E-09  3.063394E+02 -3.994995E-14  3.408830E-14 -3.539116E-15
         1   9  3.686060E-09  3.686116E-09  3.063394E+02 -8.355414E-14  1.014712E-13 -1.954851E-14
         1  10  3.686369E-09  3.686509E-09  3.063394E+02 -9.939130E-14 -1.576828E-13  3.034260E-13
         1  11  3.686706E-09  3.686762E-09  3.063394E+02 -5.353044E-14 -2.272141E-14  1.140293E-13
         1  12  3.686593E-09  3.686537E-09  3.063394E+02  5.131873E-14  1.556225E-13 -1.953413E-13
         1  13  3.687043E-09  3.686930E-09  3.063394E+02  1.021767E-15  1.030605E-13  1.244034E-13
         1  14  3.686537E-09  3.686537E-09  3.063394E+02  3.884408E-14 -5.430472E-14  8.473252E-14
         1  15  3.686425E-09  3.686537E-09  3.063394E+02  3.309467E-14  2.729399E-14 -8.752870E-14
         1  16  3.686116E-09  3.686060E-09  3.063394E+02  7.850338E-14  8.737619E-14 -2.116354E-14
         1  17  3.686762E-09  3.686706E-09  3.063394E+02  4.740052E-14 -1.412888E-13  1.158692E-13
         1  18  3.687211E-09  3.687155E-09  3.063394E+02 -7.304041E-14 -2.046374E-13  1.136617E-13
         1  19  3.686987E-09  3.686987E-09  3.063394E+02  2.716769E-14  1.734089E-13  2.059092E-13
         1  20  3.686874E-09  3.687071E-09  3.063394E+02 -3.072774E-15 -1.725397E-14 -4.425580E-13
         1  21  3.686565E-09  3.686565E-09  3.063394E+02 -3.189533E-14  1.958155E-13  3.003057E-13
         1  22  3.686397E-09  3.686397E-09  3.063394E+02  7.690113E-14  1.469618E-13  1.895692E-13
         1  23  3.686706E-09  3.686762E-09  3.063394E+02  3.301692E-14  5.835984E-14  1.100787E-13
         1  24  3.685947E-09  3.686004E-09  3.063394E+02  4.944606E-15 -1.358769E-13  1.181815E-13
         1  25  3.687408E-09  3.687324E-09  3.063394E+02  2.111227E-13  1.905207E-13 -2.038696E-13
         1  26  3.686425E-09  3.686453E-09  3.063394E+02  7.648238E-14  1.159956E-13 -5.738559E-13
         1  27  3.686874E-09  3.686818E-09  3.063394E+02 -4.520735E-14 -7.914737E-14  6.252497E-14

 internal state variables (elem, integ.pnt.,values) for set EALL and time  0.7200000E+02

         1   1 -4.359431E-03 -4.359431E-03  8.718862E-03  2.678901E-18 -1.813127E-18 -2.406368E-19  1.947306E-38  2.669595E-03  2.669595E-03  2.669595E-03  2.669595E-03  2.332542E-38  2.669595E-03  2.669595E-03  3.517474E-38  2.669595E-03  2.669595E-03  5.132620E-38  7.166751E-38  1.105786E-37  1.325487E-37  7.272128E-38  3.485649E-38  7.773011E-38
         1   2 -4.359431E-03 -4.359431E-03  8.718862E-03 -2.435061E-18 -1.154082E-18 -1.577308E-18  2.920278E-38  2.669595E-03  2.669595E-03  2.669595E-03  2.669595E-03  1.525399E-38  2.669595E-03  2.669595E-03  4.748363E-38  2.669595E-03  2.669595E-03  3.133289E-38  5.602241E-38  2.163170E-38  6.676004E-38  3.615700E-38  5.559995E-38  3.976697E-38
         1   3 -4.359431E-03 -4.359431E-03  8.718862E-03  4.755825E-19 -6.847467E-19  8.510564E-19  1.163103E-38  2.669595E-03  2.669595E-03  2.669595E-03  2.669595E-03  2.590797E-38  2.669595E-03  2.669595E-03  2.357025E-38  2.669595E-03  2.669595E-03  3.587231E-38  7.042601E-38  5.374831E-38  3.665758E-38  3.536725E-38  6.777654E-38  5.635890E-38
         1   4 -4.359431E-03 -4.359431E-03  8.718862E-03 -4.406954E-19 -5.193106E-19 -1.487231E-18  1.868055E-38  2.669595E-03  2.669595E-03  2.669595E-03  2.669595E-03  1.712439E-38  2.669595E-03  2.669595E-03  1.979169E-38  2.669595E-03  2.669595E-03  3.615202E-38  1.175907E-37  4.995031E-38  1.572567E-38  4.108683E-38  4.619347E-38  7.271995E-38
         1   5 -4.359431E-03 -4.359431E-03  8.718862E-03 -1.147491E-18 -3.031849E-19  1.654626E-19  1.963768E-38  2.669595E-03  2.669595E-03  2.669595E-03  2.669595E-03  8.192957E-39  2.669595E-03  2.669595E-03  1.333172E-38  2.669595E-03  2.669595E-03  1.156333E-38  2.010435E-38  1.829203E-38  4.805609E-38  5.805718E-38  2.618953E-38  4.290744E-38
         1   6 -4.359431E-03 -4.359431E-03  8.718862E-03 -4.634329E-19  3.190138E-19  3.648065E-19  7.453029E-39  2.669595E-03  2.669595E-03  2.669595E-03  2.669595E-03  1.221930E-38  2.669595E-03  2.669595E-03  9.442569E-39  2.669595E-03  2.669595E-03  1.514881E-38  1.433470E-38  2.275208E-38  2.751819E-38  2.670469E-38  1.905142E-38  3.103111E-38
         1   7 -4.359431E-03 -4.359431E-03  8.718862E-03 -3.562382E-18 -8.946786E-21 -3.670564E-19  5.040650E-38  2.669595E-03  2.669595E-03  2.669595E-03  2.669595E-03  5.175242E-38  2.669595E-03  2.669595E-03  4.345004E-38  2.669595E-03  2.669595E-03  1.647406E-38  6.348662E-38  1.134510E-37  1.018721E-37  9.285812E-38  8.291256E-38  6.224322E-38
         1   8 -4.359431E-03 -4.359431E-03  8.718862E-03  2.082907E-19  3.268753E-19 -2.141670E-19  2.716651E-38  2.669595E-03  2.669595E-03  2.669595E-03  2.669595E-03  7.820052E-39  2.669595E-03  2.669595E-03  1.293746E-38  2.669595E-03  2.669595E-03  2.176206E-38  4.821362E-38  1.799491E-38  2.719530E-38  6.867912E-38  2.485640E-38  5.831134E-38
         1   9 -4.359431E-03 -4.359431E-03  8.718862E-03 -3.348057E-18  1.247150E-18  1.885972E-19  1.340019E-38  2.669595E-03  2.669595E-03  2.669595E-03  2.669595E-03  2.899435E-38  2.669595E-03  2.669595E-03  2.116077E-38  2.669595E-03  2.669595E-03  4.768014E-38  2.773265E-38  8.852124E-38  1.000056E-37  4.553808E-38  5.379271E-38  7.542754E-38
         1  10 -4.359431E-03 -4.359431E-03  8.718862E-03 -2.176081E-18 -4.799500E-19 -1.274599E-18  2.077212E-38  2.669595E-03  2.669595E-03  2.669595E-03  2.669595E-03  8.410040E-38  2.669595E-03  2.669595E-03  6.038683E-38  2.669595E-03  2.669595E-03  2.999634E-38  1.179998E-37  4.888561E-38  1.512310E-37  1.027915E-37  1.937915E-37  6.594006E-38
         1  11 -4.359431E-03 -4.359431E-03  8.718862E-03 -1.914030E-18  4.332574E-19  1.478867E-18  2.205621E-38  2.669595E-03  2.669595E-03  2.669595E-03  2.669595E-03  3.089077E-38  2.669595E-03  2.669595E-03  3.853873E-38  2.669595E-03  2.669595E-03  4.224659E-38  8.449240E-38  3.735694E-38  6.911032E-38  8.251050E-38  9.320661E-38  8.807422E-38
         1  12 -4.359431E-03 -4.359431E-03  8.718862E-03  1.405016E-19  5.093659E-18 -1.382517E-18  4.300166E-38  2.669595E-03  2.669595E-03  2.669595E-03  2.669595E-03  5.503784E-38  2.669595E-03  2.669595E-03  4.153335E-38  2.669595E-03  2.669595E-03  2.810627E-38  9.288953E-38  1.465973E-37  3.719228E-38  5.904316E-38  1.224500E-37  9.132714E-38
         1  13 -4.359431E-03 -4.359431E-03  8.718862E-03 -2.182169E-19  2.364731E-18  6.505478E-19  4.016310E-38  2.669595E-03  2.669595E-03  2.669595E-03  2.669595E-03  2.278038E-38  2.669595E-03  2.669595E-03  3.614178E-38  2.669595E-03  2.669595E-03  4.684337E-38  1.048986E-37  6.448155E-38  4.399400E-38  6.658864E-38  6.949960E-38  9.933979E-38
         1  14 -4.359431E-03 -4.359431E-03  8.718862E-03  1.411845E-18 -6.494625E-19 -8.989667E-19  1.213947E-38  2.669595E-03  2.669595E-03  2.669595E-03  2.669595E-03  2.712157E-38  2.669595E-03  2.669595E-03  1.680328E-38  2.669595E-03  2.669595E-03  7.933632E-39  3.023091E-38  7.747607E-38  5.359150E-38  4.119137E-38  6.221995E-38  2.772451E-38
         1  15 -4.359431E-03 -4.359431E-03  8.718862E-03  6.715383E-19  2.426220E-19 -2.393239E-18  5.773428E-38  2.669595E-03  2.669595E-03  2.669595E-03  2.669595E-03  1.699609E-38  2.669595E-03  2.669595E-03  1.664577E-38  2.669595E-03  2.669595E-03  5.161844E-38  9.271057E-38  1.212093E-37  7.539940E-38  4.606717E-38  4.478336E-38  1.497831E-37
         1  16 -4.359431E-03 -4.359431E-03  8.718862E-03  1.527756E-18  2.205568E-18 -2.327779E-18  4.559853E-38  2.669595E-03  2.669595E-03  2.669595E-03  2.669595E-03  2.245392E-38  2.669595E-03  2.669595E-03  9.014213E-39  2.669595E-03  2.669595E-03  4.280088E-38  9.073488E-38  5.131566E-38  5.768685E-38  5.648972E-38  2.546305E-38  1.206555E-37
         1  17 -4.359431E-03 -4.359431E-03  8.718862E-03  1.605974E-18 -1.548217E-18  1.100534E-18  3.633349E-38  2.669595E-03  2.669595E-03  2.669595E-03  2.669595E-03  3.502957E-38  2.669595E-03  2.669595E-03  3.249808E-38  2.669595E-03  2.669595E-03  4.915457E-38  6.105546E-38  5.528879E-38  1.205648E-37  1.141264E-37  9.483327E-38  1.169966E-37
         1  18 -4.359431E-03 -4.359431E-03  8.718862E-03 -3.751880E-18 -2.184551E-19  3.046963E-18  3.911827E-38  2.669595E-03  2.669595E-03  2.669595E-03  2.669595E-03  6.715882E-38  2.669595E-03  2.669595E-03  5.792241E-38  2.669595E-03  2.669595E-03  4.686546E-38  4.726907E-38  1.264030E-37  7.994105E-38  2.359114E-37  1.713233E-37  1.100013E-37
         1  19 -4.359431E-03 -4.359431E-03  8.718862E-03 -7.961316E-19  1.221607E-18  7.713479E-18  1.149802E-37  2.669595E-03  2.669595E-03  2.669595E-03  2.669595E-03  9.135408E-38  2.669595E-03  2.669595E-03  1.323164E-37  2.669595E-03  2.669595E-03  8.060190E-38  1.099045E-37  1.017138E-37  2.665542E-37  2.986958E-37  3.063913E-37  2.684678E-37
         1  20 -4.359431E-03 -4.359431E-03  8.718862E-03  8.972726E-19  1.234921E-18 -4.254673E-18  6.042146E-38  2.669595E-03  2.669595E-03  2.669595E-03  2.669595E-03  5.076427E-38  2.669595E-03  2.669595E-03  5.321614E-38  2.669595E-03  2.669595E-03  6.069339E-38  4.054770E-38  1.929939E-38  1.050026E-37  1.352837E-37  1.019497E-37  1.363204E-37
         1  21 -4.359431E-03 -4.359431E-03  8.718862E-03 -1.623921E-19  1.085526E-19  1.130339E-18  7.376338E-38  2.669595E-03  2.669595E-03  2.669595E-03  2.669595E-03  6.464375E-38  2.669595E-03  2.669595E-03  6.318186E-38  2.669595E-03  2.669595E-03  4.412099E-38  1.093873E-37  1.407168E-37  7.680356E-38  7.754515E-38  1.699016E-37  1.662336E-37
         1  22 -4.359431E-03 -4.359431E-03  8.718862E-03  2.178728E-18 -2.163852E-18  1.217636E-18  3.167220E-38  2.669595E-03  2.669595E-03  2.669595E-03  2.669595E-03  5.057671E-38  2.669595E-03  2.669595E-03  6.378977E-38  2.669595E-03  2.669595E-03  3.204911E-38  1.143497E-37  1.260983E-37  6.013794E-38  1.161831E-37  1.566445E-37  8.519248E-38
         1  23 -4.359431E-03 -4.359431E-03  8.718862E-03  3.482629E-19  1.141192E-18  1.215466E-18  1.570284E-38  2.669595E-03  2.669595E-03  2.669595E-03  2.669595E-03  2.980886E-38  2.669595E-03  2.669595E-03  1.349316E-38  2.669595E-03  2.669595E-03  2.977646E-38  2.660504E-38  1.775871E-38  4.005254E-38  4.285725E-38  4.341754E-38  5.773819E-38
         1  24 -4.359431E-03 -4.359431E-03  8.718862E-03  6.345071E-19 -2.697059E-18 -3.771944E-20  1.840822E-38  2.669595E-03  2.669595E-03  2.669595E-03  2.669595E-03  4.858211E-38  2.669595E-03  2.669595E-03  2.685258E-38  2.669595E-03  2.669595E-03  3.397564E-38  6.061587E-38  7.927802E-38  2.556346E-38  8.692088E-38  9.017823E-38  7.043462E-38
         1  25 -4.359431E-03 -4.359431E-03  8.718862E-03  6.046306E-18  5.597194E-18 -8.329404E-18  1.925082E-37  2.669595E-03  2.669595E-03  2.669595E-03  2.669595E-03  9.661542E-38  2.669595E-03  2.669595E-03  8.014676E-38  2.669595E-03  2.669595E-03  1.931388E-37  2.713860E-37  2.410275E-37  2.752180E-37  3.300853E-37  2.332872E-37  5.282509E-37
         1  26 -4.359431E-03 -4.359431E-03  8.718862E-03  1.311313E-19 -5.304014E-19 -1.298422E-18  6.954542E-38  2.669595E-03  2.669595E-03  2.669595E-03  2.669595E-03  5.124384E-38  2.669595E-03  2.669595E-03  4.256281E-38  2.669595E-03  2.669595E-03  7.848264E-38  1.095958E-37  2.906764E-38  1.417199E-37  1.877523E-37  1.266860E-37  2.027500E-37
         1  27 -4.359431E-03 -4.359431E-03  8.718862E-03 -4.091434E-18 -2.378839E-19  5.190724E-20  7.820236E-38  2.669595E-03  2.669595E-03  2.669595E-03  2.669595E-03  4.683886E-38  2.669595E-03  2.669595E-03  3.910952E-38  2.669595E-03  2.669595E-03  6.656440E-38  1.183931E-37  1.308086E-37  1.501355E-37  1.591628E-37  1.011625E-37  1.847260E-37
