
 displacements (vx,vy,vz) for set NALL and time  0.1000000E+01

         1  6.776264E-21  0.000000E+00 -2.646978E-23
         2 -1.549099E-06  2.873758E-16  5.577163E-04
         3 -7.783800E-07  1.443970E-16  2.795771E-04
         4 -3.038044E-06  5.637453E-16  1.103862E-03
         5 -2.304954E-06  4.276078E-16  8.328768E-04
         6 -4.408191E-06  8.189653E-16  1.627788E-03
         7 -3.741347E-06  6.945273E-16  1.369314E-03
         8 -5.609593E-06  1.045495E-15  2.118208E-03
         9 -5.032772E-06  9.362374E-16  1.877881E-03
        10 -6.603456E-06  1.237616E-15  2.563992E-03
        11 -6.134426E-06  1.146068E-15  2.347378E-03
        12 -7.365903E-06  1.392742E-15  2.953974E-03
        13 -7.014500E-06  1.319940E-15  2.766656E-03
        14 -7.891754E-06  1.509803E-15  3.276987E-03
        15 -7.658000E-06  1.455928E-15  3.124549E-03
        16 -8.198250E-06  1.589950E-15  3.521901E-03
        17 -8.070486E-06  1.554468E-15  3.409906E-03
        18 -8.328791E-06  1.634187E-15  3.677430E-03
        19 -8.281816E-06  1.616557E-15  3.611528E-03
        20 -8.356742E-06  1.642185E-15  3.732919E-03
        21 -8.349874E-06  1.642651E-15  3.718407E-03
        22 -8.384694E-06  1.614191E-15  3.677430E-03
        23 -8.363611E-06  1.632659E-15  3.718407E-03
        24 -8.515235E-06  1.550750E-15  3.521901E-03
        25 -8.431669E-06  1.586989E-15  3.611528E-03
        26 -8.821730E-06  1.451564E-15  3.276987E-03
        27 -8.642998E-06  1.505574E-15  3.409906E-03
        28 -9.347582E-06  1.317905E-15  2.953974E-03
        29 -9.055484E-06  1.388829E-15  3.124549E-03
        30 -1.011003E-05  1.152862E-15  2.563992E-03
        31 -9.698985E-06  1.239114E-15  2.766656E-03
        32 -1.110389E-05  9.597684E-16  2.118208E-03
        33 -1.057906E-05  1.059462E-15  2.347378E-03
        34 -1.230529E-05  7.430717E-16  1.627788E-03
        35 -1.168071E-05  8.542987E-16  1.877881E-03
        36 -1.367544E-05  5.064385E-16  1.103862E-03
        37 -1.297214E-05  6.267360E-16  1.369314E-03
        38 -1.516439E-05  2.572004E-16  5.577163E-04
        39 -1.440853E-05  3.831817E-16  8.328768E-04
        40 -1.671348E-05  0.000000E+00 -2.646978E-23
        41 -1.593510E-05  1.290678E-16  2.795771E-04

 stresses (elem, integ.pnt.,sxx,syy,szz,sxy,sxz,syz) for set EALL and time  0.1000000E+01

         1   1  1.084714E+00  3.950482E-01 -1.105485E+00  4.004637E-02  1.609617E+00  6.962653E-01
         1   2  3.649343E+00  2.047383E-01 -4.946967E-01  6.769994E-02  1.037799E+00  2.880841E-01
         1   3  6.125563E+00 -1.580481E-01  4.937319E-02  9.520799E-02  1.634726E+00 -9.003244E-02
         1   4 -1.323882E-02 -1.455585E-03  1.399263E-02 -1.757928E-04  1.617222E+00  6.956651E-01
         1   5 -5.264692E-03  1.251480E-03  1.345796E-02  1.292570E-04  1.032364E+00  2.874564E-01
         1   6 -1.370878E-02 -2.694474E-04  1.831315E-02  2.875960E-04  1.616278E+00 -9.070144E-02
         1   7 -1.101863E+00 -3.977552E-01  1.135930E+00 -4.058921E-02  1.594756E+00  6.950638E-01
         1   8 -3.649691E+00 -2.006406E-01  5.246822E-01 -6.762209E-02  9.968602E-01  2.868277E-01
         1   9 -6.141682E+00  1.605703E-01 -9.038673E-03 -9.480029E-02  1.567763E+00 -9.137140E-02
         1  10  1.088005E+00  3.952689E-01 -1.108039E+00  7.813919E-13  1.386487E+00 -6.721529E-14
         1  11  3.652692E+00  2.050320E-01 -4.970697E-01  3.604555E-13  8.156914E-01  2.719297E-13
         1  12  6.128951E+00 -1.576991E-01  4.714805E-02  8.758732E-13  1.413642E+00  3.908448E-13
         1  13 -1.283639E-02 -2.471917E-03  1.020028E-02  4.494878E-13  1.394050E+00 -1.757291E-13
         1  14 -4.803557E-03  3.083524E-04  9.847012E-03 -8.039651E-14  8.102239E-01 -5.831308E-14
         1  15 -1.320814E-02 -1.157017E-03  1.485020E-02  3.796046E-13  1.395169E+00  2.019569E-13
         1  16 -1.104350E+00 -4.000110E-01  1.130898E+00  2.565693E-13  1.371543E+00 -5.391257E-14
         1  17 -3.652119E+00 -2.028234E-01  5.198322E-01 -3.570275E-13  7.746875E-01  5.321890E-14
         1  18 -6.144072E+00  1.584427E-01 -1.374075E-02  1.901397E-13  1.346630E+00  8.486503E-14
         1  19  1.084714E+00  3.950482E-01 -1.105485E+00 -4.004637E-02  1.609617E+00 -6.962653E-01
         1  20  3.649343E+00  2.047383E-01 -4.946967E-01 -6.769994E-02  1.037799E+00 -2.880841E-01
         1  21  6.125563E+00 -1.580481E-01  4.937319E-02 -9.520799E-02  1.634726E+00  9.003244E-02
         1  22 -1.323882E-02 -1.455585E-03  1.399263E-02  1.757928E-04  1.617222E+00 -6.956651E-01
         1  23 -5.264692E-03  1.251480E-03  1.345796E-02 -1.292570E-04  1.032364E+00 -2.874564E-01
         1  24 -1.370878E-02 -2.694474E-04  1.831315E-02 -2.875960E-04  1.616278E+00  9.070144E-02
         1  25 -1.101863E+00 -3.977552E-01  1.135930E+00  4.058921E-02  1.594756E+00 -6.950638E-01
         1  26 -3.649691E+00 -2.006406E-01  5.246822E-01  6.762209E-02  9.968602E-01 -2.868277E-01
         1  27 -6.141682E+00  1.605703E-01 -9.038673E-03  9.480029E-02  1.567763E+00  9.137140E-02
         2   1  8.379790E+00  3.021625E-02  4.508048E-01 -1.377874E-02  1.534933E+00 -1.672738E-01
         2   2  1.088403E+01 -5.189914E-02  1.369817E-01 -9.612214E-04  9.187384E-01 -7.207472E-02
         2   3  1.337729E+01 -1.304559E-01 -1.611356E-01  1.189429E-02  1.559128E+00  2.253286E-02
         2   4 -1.052031E-02  5.751931E-04  1.870060E-02  3.257242E-05  1.648175E+00 -1.672916E-01
         2   5 -4.488364E-03  7.361830E-05  1.072999E-02  4.501326E-05  1.017996E+00 -7.210704E-02
         2   6 -1.099919E-02 -1.877051E-04  1.702487E-02  9.501954E-05  1.644495E+00  2.248989E-02
         2   7 -8.398655E+00 -3.098545E-02 -4.182154E-01  1.376592E-02  1.444251E+00 -1.673098E-01
         2   8 -1.088941E+01  5.098980E-02 -1.197781E-01  9.786336E-04  8.000917E-01 -7.213976E-02
         2   9 -1.339397E+01  1.299404E-01  1.915456E-01 -1.177071E-02  1.412705E+00  2.244657E-02
         2  10  8.392482E+00  3.528309E-02  4.550218E-01  9.074591E-13  1.465529E+00  1.758256E-13
         2  11  1.089670E+01 -4.680686E-02  1.413201E-01  3.853843E-13  8.534802E-01 -9.456353E-14
         2  12  1.338993E+01 -1.253401E-01 -1.566793E-01  8.784808E-13  1.498016E+00  1.356312E-13
         2  13 -9.442401E-03  6.654689E-04  1.794009E-02  3.809171E-13  1.578723E+00 -4.211167E-13
         2  14 -3.431793E-03  1.892770E-04  1.009083E-02 -1.370730E-13  9.526909E-01 -3.537041E-13
         2  15 -9.967251E-03 -4.859574E-05  1.650369E-02  3.524434E-13  1.583337E+00  9.637469E-14
         2  16 -8.409189E+00 -3.587298E-02 -4.239535E-01  1.902970E-13  1.374751E+00 -8.149812E-14
         2  17 -1.089996E+01  4.612771E-02 -1.253947E-01 -3.170617E-13  7.347395E-01 -5.557102E-13
         2  18 -1.340455E+01  1.251018E-01  1.860470E-01  5.551093E-14  1.351501E+00 -4.985381E-13
         2  19  8.379790E+00  3.021625E-02  4.508048E-01  1.377874E-02  1.534933E+00  1.672738E-01
         2  20  1.088403E+01 -5.189914E-02  1.369817E-01  9.612214E-04  9.187384E-01  7.207472E-02
         2  21  1.337729E+01 -1.304559E-01 -1.611356E-01 -1.189429E-02  1.559128E+00 -2.253286E-02
         2  22 -1.052031E-02  5.751931E-04  1.870060E-02 -3.257242E-05  1.648175E+00  1.672916E-01
         2  23 -4.488364E-03  7.361830E-05  1.072999E-02 -4.501326E-05  1.017996E+00  7.210704E-02
         2  24 -1.099919E-02 -1.877051E-04  1.702487E-02 -9.501954E-05  1.644495E+00 -2.248989E-02
         2  25 -8.398655E+00 -3.098545E-02 -4.182154E-01 -1.376592E-02  1.444251E+00  1.673098E-01
         2  26 -1.088941E+01  5.098980E-02 -1.197781E-01 -9.786336E-04  8.000917E-01  7.213976E-02
         2  27 -1.339397E+01  1.299404E-01  1.915456E-01  1.177071E-02  1.412705E+00 -2.244657E-02
         3   1  1.564559E+01  1.558212E-01  7.373183E-02  3.793925E-02  1.597422E+00  4.262720E-02
         3   2  1.815618E+01  1.544839E-02 -2.127479E-02  3.218525E-02  9.915210E-01  1.788245E-02
         3   3  2.065331E+01 -1.323722E-01 -1.064084E-01  2.648949E-02  1.622526E+00 -5.510118E-03
         3   4 -1.098083E-02  3.694809E-05  1.708920E-02 -1.437500E-04  1.636588E+00  4.244540E-02
         3   5 -5.991759E-03 -8.511220E-05  9.728892E-03 -8.392032E-06  1.019036E+00  1.768215E-02
         3   6 -1.137141E-02 -1.202496E-04  1.546106E-02  1.852943E-04  1.638531E+00 -5.730046E-03
         3   7 -1.565981E+01 -1.549162E-01 -4.140784E-02 -3.809570E-02  1.430505E+00  4.226430E-02
         3   8 -1.815873E+01 -1.505422E-02  3.902735E-02 -3.206548E-02  8.013098E-01  1.748257E-02
         3   9 -2.066463E+01  1.324878E-01  1.358206E-01 -2.597711E-02  1.409304E+00 -5.949262E-03
         3  10  1.564027E+01  1.530700E-01  6.993108E-02  7.626831E-13  1.499244E+00  2.261178E-13
         3  11  1.815085E+01  1.266148E-02 -2.515156E-02  2.679365E-13  8.911614E-01  4.089669E-13
         3  12  2.064796E+01 -1.351995E-01 -1.103691E-01  4.862817E-13  1.519985E+00  4.131298E-13
         3  13 -1.019119E-02 -9.892998E-05  1.590336E-02  3.639163E-13  1.538458E+00  2.022937E-13
         3  14 -5.215418E-03 -2.566651E-04  8.467075E-03 -2.678397E-14  9.187269E-01 -3.432881E-13
         3  15 -1.061719E-02 -3.321359E-04  1.411531E-02  3.799036E-13  1.536044E+00  3.113931E-13
         3  16 -1.565292E+01 -1.524380E-01 -3.997835E-02  3.929475E-14  1.332423E+00 -7.946131E-14
         3  17 -1.815185E+01 -1.261172E-02  4.038086E-02 -2.897837E-13  7.010515E-01  2.618807E-13
         3  18 -2.065778E+01  1.348900E-01  1.370902E-01  1.980383E-13  1.306870E+00  2.713713E-13
         3  19  1.564559E+01  1.558212E-01  7.373183E-02 -3.793925E-02  1.597422E+00 -4.262720E-02
         3  20  1.815618E+01  1.544839E-02 -2.127479E-02 -3.218525E-02  9.915210E-01 -1.788245E-02
         3  21  2.065331E+01 -1.323722E-01 -1.064084E-01 -2.648949E-02  1.622526E+00  5.510118E-03
         3  22 -1.098083E-02  3.694809E-05  1.708920E-02  1.437500E-04  1.636588E+00 -4.244540E-02
         3  23 -5.991759E-03 -8.511220E-05  9.728892E-03  8.392032E-06  1.019036E+00 -1.768215E-02
         3  24 -1.137141E-02 -1.202496E-04  1.546106E-02 -1.852943E-04  1.638531E+00  5.730046E-03
         3  25 -1.565981E+01 -1.549162E-01 -4.140784E-02  3.809570E-02  1.430505E+00 -4.226430E-02
         3  26 -1.815873E+01 -1.505422E-02  3.902735E-02  3.206548E-02  8.013098E-01 -1.748257E-02
         3  27 -2.066463E+01  1.324878E-01  1.358206E-01  2.597711E-02  1.409304E+00  5.949262E-03
         4   1  2.290826E+01  1.273955E-01  1.668798E-01  1.820278E-02  1.624710E+00 -1.027075E-02
         4   2  2.541419E+01 -4.214611E-03  1.532471E-02  2.083033E-02  1.012157E+00 -4.201638E-03
         4   3  2.791418E+01 -1.333733E-01 -1.224075E-01  2.354873E-02  1.641687E+00  1.525083E-03
         4   4 -1.059158E-02  5.277906E-04  1.582149E-02 -1.829840E-04  1.640678E+00 -1.046571E-02
         4   5 -7.487299E-03 -7.582461E-05  7.987703E-03  2.896640E-05  1.019167E+00 -4.412377E-03
         4   6 -1.130039E-02 -1.768374E-04  1.312958E-02  3.316558E-04  1.639942E+00  1.298365E-03
         4   7 -2.291725E+01 -1.265127E-01 -1.372860E-01 -1.849171E-02  1.393595E+00 -1.066030E-02
         4   8 -2.541422E+01  4.248558E-03 -8.482233E-04 -2.068890E-02  7.631340E-01 -4.622732E-03
         4   9 -2.791879E+01  1.336191E-01  1.477666E-01 -2.279534E-02  1.375165E+00  1.072044E-03
         4  10  2.291119E+01  1.281451E-01  1.665854E-01  7.206902E-13  1.531130E+00  6.559146E-13
         4  11  2.541709E+01 -3.486614E-03  1.503120E-02  3.569343E-13  9.194139E-01  1.451889E-13
         4  12  2.791704E+01 -1.326700E-01 -1.227059E-01  9.252091E-13  1.549780E+00  5.452198E-13
         4  13 -1.001156E-02  2.705350E-04  1.451960E-02  1.660858E-13  1.547115E+00  5.908781E-14
         4  14 -6.939828E-03 -3.546887E-04  6.686746E-03 -1.883878E-13  9.264429E-01  1.462482E-12
         4  15 -1.079125E-02 -4.803812E-04  1.182367E-02 -3.276963E-14  1.548058E+00  3.344976E-13
         4  16 -2.291902E+01 -1.277781E-01 -1.395950E-01  2.330398E-14  1.300049E+00 -1.870875E-13
         4  17 -2.541602E+01  2.961571E-03 -3.156313E-03 -6.468691E-14  6.704300E-01 -9.313238E-14
         4  18 -2.792063E+01  1.323074E-01  1.454536E-01 -1.799366E-13  1.283303E+00  5.436944E-13
         4  19  2.290826E+01  1.273955E-01  1.668798E-01 -1.820278E-02  1.624710E+00  1.027075E-02
         4  20  2.541419E+01 -4.214611E-03  1.532471E-02 -2.083033E-02  1.012157E+00  4.201638E-03
         4  21  2.791418E+01 -1.333733E-01 -1.224075E-01 -2.354873E-02  1.641687E+00 -1.525083E-03
         4  22 -1.059158E-02  5.277906E-04  1.582149E-02  1.829840E-04  1.640678E+00  1.046571E-02
         4  23 -7.487299E-03 -7.582461E-05  7.987703E-03 -2.896640E-05  1.019167E+00  4.412377E-03
         4  24 -1.130039E-02 -1.768374E-04  1.312958E-02 -3.316558E-04  1.639942E+00 -1.298365E-03
         4  25 -2.291725E+01 -1.265127E-01 -1.372860E-01  1.849171E-02  1.393595E+00  1.066030E-02
         4  26 -2.541422E+01  4.248558E-03 -8.482233E-04  2.068890E-02  7.631340E-01  4.622732E-03
         4  27 -2.791879E+01  1.336191E-01  1.477666E-01  2.279534E-02  1.375165E+00 -1.072044E-03
         5   1  3.017474E+01  1.353297E-01  1.423624E-01  2.486880E-02  1.650451E+00  2.760385E-03
         5   2  3.267961E+01  1.542870E-03  3.972266E-03  2.417554E-02  1.035164E+00  1.584826E-03
         5   3  3.518191E+01 -1.321717E-01 -1.222831E-01  2.359693E-02  1.660720E+00  5.596399E-04
         5   4 -1.036665E-02  6.287347E-04  1.355683E-02 -3.413854E-04  1.639427E+00  2.514576E-03
         5   5 -9.613745E-03 -1.931766E-04  5.648007E-03  2.489711E-05  1.019046E+00  1.315376E-03
         5   6 -1.122099E-02 -1.339601E-04  1.020769E-02  5.057528E-04  1.639768E+00  2.662009E-04
         5   7 -3.017604E+01 -1.337807E-01 -1.162561E-01 -2.541579E-02  1.369545E+00  2.269374E-03
         5   8 -3.267593E+01 -1.395649E-03  6.926406E-03 -2.398431E-02  7.440779E-01  1.046510E-03
         5   9 -3.517767E+01  1.327359E-01  1.429593E-01 -2.243838E-02  1.359975E+00 -2.667426E-05
         5  10  3.017395E+01  1.344527E-01  1.404697E-01  2.449025E-13  1.556481E+00 -1.871543E-13
         5  11  3.267878E+01  6.297353E-04  2.047350E-03  7.385582E-14  9.408225E-01 -7.775473E-13
         5  12  3.518104E+01 -1.331247E-01 -1.242468E-01  1.926989E-13  1.566006E+00  3.429942E-13
         5  13 -1.011976E-02  1.956424E-04  1.210760E-02 -1.324195E-14  1.545497E+00  1.661102E-13
         5  14 -9.402870E-03 -6.623254E-04  4.166593E-03 -9.857001E-14  9.247458E-01  3.382310E-13
         5  15 -1.105341E-02 -6.429550E-04  8.687403E-03  1.993598E-13  1.545098E+00  2.005721E-13
         5  16 -3.017476E+01 -1.337711E-01 -1.172615E-01  2.045326E-13  1.275654E+00  7.999763E-13
         5  17 -3.267468E+01 -1.422080E-03  5.888826E-03 -1.917110E-13  6.498196E-01 -7.656450E-13
         5  18 -3.517647E+01  1.326697E-01  1.418828E-01 -3.522381E-13  1.265350E+00  8.251709E-13
         5  19  3.017474E+01  1.353297E-01  1.423624E-01 -2.486880E-02  1.650451E+00 -2.760385E-03
         5  20  3.267961E+01  1.542870E-03  3.972266E-03 -2.417554E-02  1.035164E+00 -1.584826E-03
         5  21  3.518191E+01 -1.321717E-01 -1.222831E-01 -2.359693E-02  1.660720E+00 -5.596399E-04
         5  22 -1.036665E-02  6.287347E-04  1.355683E-02  3.413854E-04  1.639427E+00 -2.514576E-03
         5  23 -9.613745E-03 -1.931766E-04  5.648007E-03 -2.489711E-05  1.019046E+00 -1.315376E-03
         5  24 -1.122099E-02 -1.339601E-04  1.020769E-02 -5.057528E-04  1.639768E+00 -2.662009E-04
         5  25 -3.017604E+01 -1.337807E-01 -1.162561E-01  2.541579E-02  1.369545E+00 -2.269374E-03
         5  26 -3.267593E+01 -1.395649E-03  6.926406E-03  2.398431E-02  7.440779E-01 -1.046510E-03
         5  27 -3.517767E+01  1.327359E-01  1.429593E-01  2.243838E-02  1.359975E+00  2.667426E-05
         6   1  3.744053E+01  1.334446E-01  1.447428E-01  2.263397E-02  1.665595E+00  2.971501E-05
         6   2  3.994252E+01 -1.474204E-03  5.778941E-03  2.443458E-02  1.045159E+00 -9.531962E-04
         6   3  4.244841E+01 -1.340352E-01 -1.208724E-01  2.637682E-02  1.665545E+00 -2.105023E-03
         6   4 -1.004518E-02  8.838677E-04  1.075516E-02 -5.167110E-04  1.639773E+00 -2.787959E-04
         6   5 -1.223570E-02 -2.920340E-04  2.759528E-03  3.360406E-05  1.019017E+00 -1.289532E-03
         6   6 -1.109166E-02 -9.027705E-05  6.640864E-03  7.253742E-04  1.639402E+00 -2.469699E-03
         6   7 -3.743218E+01 -1.312958E-01 -1.231999E-01 -2.351100E-02  1.355065E+00 -5.867188E-04
         6   8 -3.993423E+01  1.644209E-03  5.537291E-04 -2.420445E-02  7.339956E-01 -1.625315E-03
         6   9 -4.243323E+01  1.350375E-01  1.357967E-01 -2.475655E-02  1.354386E+00 -2.833858E-03
         6  10  3.744158E+01  1.333008E-01  1.435922E-01  4.017992E-13  1.570914E+00  1.616780E-12
         6  11  3.994352E+01 -1.662363E-03  4.596330E-03  1.377567E-13  9.509073E-01  2.583271E-12
         6  12  4.244935E+01 -1.342710E-01 -1.220931E-01 -6.038010E-14  1.571723E+00  5.463055E-13
         6  13 -1.020429E-02  2.223268E-04  9.086312E-03  1.004458E-13  1.545134E+00  6.024946E-13
         6  14 -1.244715E-02 -9.979406E-04  1.058648E-03 -2.221883E-14  9.248101E-01  4.983858E-13
         6  15 -1.136147E-02 -8.437763E-04  4.901806E-03 -1.721577E-13  1.545627E+00  4.610404E-13
         6  16 -3.743354E+01 -1.324763E-01 -1.253867E-01 -4.563351E-13  1.260468E+00  2.163967E-13
         6  17 -3.993565E+01  4.192870E-04 -1.665089E-03 -1.789222E-13  6.398333E-01 -3.047982E-13
         6  18 -4.243471E+01  1.337650E-01  1.335397E-01  1.412447E-13  1.260658E+00 -1.133919E-12
         6  19  3.744053E+01  1.334446E-01  1.447428E-01 -2.263397E-02  1.665595E+00 -2.971501E-05
         6  20  3.994252E+01 -1.474204E-03  5.778941E-03 -2.443458E-02  1.045159E+00  9.531962E-04
         6  21  4.244841E+01 -1.340352E-01 -1.208724E-01 -2.637682E-02  1.665545E+00  2.105023E-03
         6  22 -1.004518E-02  8.838677E-04  1.075516E-02  5.167110E-04  1.639773E+00  2.787959E-04
         6  23 -1.223570E-02 -2.920340E-04  2.759528E-03 -3.360406E-05  1.019017E+00  1.289532E-03
         6  24 -1.109166E-02 -9.027706E-05  6.640864E-03 -7.253742E-04  1.639402E+00  2.469699E-03
         6  25 -3.743218E+01 -1.312958E-01 -1.231999E-01  2.351100E-02  1.355065E+00  5.867187E-04
         6  26 -3.993423E+01  1.644209E-03  5.537291E-04  2.420445E-02  7.339956E-01  1.625315E-03
         6  27 -4.243323E+01  1.350375E-01  1.357967E-01  2.475655E-02  1.354386E+00  2.833858E-03
         7   1  4.471026E+01  1.352909E-01  1.442961E-01  2.270497E-02  1.666177E+00 -9.287817E-04
         7   2  4.720960E+01  4.797677E-03 -6.019278E-03  2.005497E-02  1.040148E+00  4.697757E-03
         7   3  4.971824E+01 -1.261035E-01 -1.461448E-01  1.756928E-02  1.656059E+00  1.075875E-02
         7   4 -9.671808E-03  1.129867E-03  7.300804E-03 -7.362499E-04  1.639914E+00 -1.305519E-03
         7   5 -1.537848E-02 -4.291148E-04 -7.179478E-04  4.199067E-05  1.019285E+00  4.288757E-03
         7   6 -1.090721E-02  5.967849E-06  2.462845E-03  9.844388E-04  1.640977E+00  1.031771E-02
         7   7 -4.469016E+01 -1.324124E-01 -1.283786E-01 -2.398701E-02  1.350801E+00 -1.681686E-03
         7   8 -4.719579E+01 -4.629204E-03  6.822012E-03 -1.977642E-02  7.355748E-01  3.880245E-03
         7   9 -4.969008E+01  1.276076E-01  1.542813E-01 -1.540191E-02  1.363049E+00  9.877083E-03
         7  10  4.470631E+01  1.329499E-01  1.409909E-01  1.788172E-13  1.574264E+00 -1.066669E-12
         7  11  4.720560E+01  2.409401E-03 -9.362742E-03 -1.008137E-14  9.470514E-01  5.547238E-13
         7  12  4.971418E+01 -1.285436E-01 -1.495338E-01 -1.660968E-13  1.561779E+00 -1.255862E-12
         7  13 -1.031885E-02  2.065654E-04  5.412727E-03  4.723423E-14  1.548057E+00 -5.158559E-13
         7  14 -1.607086E-02 -1.399720E-03 -2.644305E-03 -2.515934E-14  9.262469E-01 -1.816986E-12
         7  15 -1.165398E-02 -1.016488E-03  4.908906E-04  5.362285E-14  1.546758E+00 -7.972068E-13
         7  16 -4.468750E+01 -1.319193E-01 -1.288492E-01 -2.693197E-13  1.259000E+00 -8.157302E-13
         7  17 -4.719318E+01 -4.183405E-03  6.313071E-03 -1.742511E-13  6.425949E-01 -1.057999E-12
         7  18 -4.968752E+01  1.280016E-01  1.537267E-01  1.378196E-13  1.268891E+00 -8.442690E-13
         7  19  4.471026E+01  1.352909E-01  1.442961E-01 -2.270497E-02  1.666177E+00  9.287817E-04
         7  20  4.720960E+01  4.797677E-03 -6.019278E-03 -2.005497E-02  1.040148E+00 -4.697757E-03
         7  21  4.971824E+01 -1.261035E-01 -1.461448E-01 -1.756928E-02  1.656059E+00 -1.075875E-02
         7  22 -9.671808E-03  1.129867E-03  7.300804E-03  7.362499E-04  1.639914E+00  1.305519E-03
         7  23 -1.537848E-02 -4.291148E-04 -7.179478E-04 -4.199067E-05  1.019285E+00 -4.288757E-03
         7  24 -1.090721E-02  5.967850E-06  2.462845E-03 -9.844388E-04  1.640977E+00 -1.031771E-02
         7  25 -4.469016E+01 -1.324124E-01 -1.283786E-01  2.398701E-02  1.350801E+00  1.681686E-03
         7  26 -4.719579E+01 -4.629204E-03  6.822012E-03  1.977642E-02  7.355748E-01 -3.880245E-03
         7  27 -4.969008E+01  1.276076E-01  1.542813E-01  1.540191E-02  1.363049E+00 -9.877083E-03
         8   1  5.197315E+01  1.328338E-01  1.263982E-01  2.462916E-02  1.661310E+00  6.290610E-03
         8   2  5.446731E+01 -1.731139E-02  2.619575E-02  3.575039E-02  1.028933E+00 -1.669075E-02
         8   3  5.698439E+01 -1.540247E-01 -5.907323E-02  4.707184E-02  1.633298E+00 -4.159258E-02
         8   4 -9.262434E-03  1.432871E-03  3.227074E-03 -9.993829E-04  1.638787E+00  5.807659E-03
         8   5 -1.901950E-02 -5.452862E-04 -4.707074E-03  3.297048E-05  1.018597E+00 -1.721686E-02
         8   6 -1.064279E-02  1.086154E-04 -2.359849E-03  1.265035E-03  1.635572E+00 -4.216489E-02
         8   7 -5.193915E+01 -1.290211E-01 -1.168808E-01 -2.640592E-02  1.370725E+00  5.325156E-03
         8   8 -5.444692E+01  1.767700E-02 -3.152125E-02 -3.545038E-02  7.627157E-01 -1.774261E-02
         8   9 -5.694105E+01  1.562568E-01  5.950995E-02 -4.429514E-02  1.392295E+00 -4.273690E-02
         8  10  5.198208E+01  1.359158E-01  1.284856E-01  5.576444E-13  1.558559E+00 -5.174631E-13
         8  11  5.447615E+01 -1.430063E-02  2.823072E-02  7.750598E-14  9.298105E-01 -1.407217E-12
         8  12  5.699313E+01 -1.510852E-01 -5.709420E-02 -2.190589E-13  1.537805E+00 -4.965180E-13
         8  13 -1.050588E-02  1.580041E-04  9.569891E-04  1.110173E-14  1.536093E+00 -1.937634E-12
         8  14 -2.035867E-02 -1.891444E-03 -7.029737E-03  4.386560E-14  9.195340E-01  3.657355E-13
         8  15 -1.207635E-02 -1.308816E-03 -4.738556E-03  9.273314E-14  1.540141E+00  1.418615E-12
         8  16 -5.195055E+01 -1.346542E-01 -1.235081E-01 -5.062772E-13  1.268089E+00 -1.029844E-12
         8  17 -5.445842E+01  1.197263E-02 -3.820116E-02 -2.439508E-13  6.637124E-01  1.159031E-12
         8  18 -5.695265E+01  1.504812E-01  5.277393E-02 -8.915122E-14  1.296924E+00  2.332672E-12
         8  19  5.197315E+01  1.328338E-01  1.263982E-01 -2.462916E-02  1.661310E+00 -6.290610E-03
         8  20  5.446731E+01 -1.731139E-02  2.619575E-02 -3.575039E-02  1.028933E+00  1.669075E-02
         8  21  5.698439E+01 -1.540247E-01 -5.907323E-02 -4.707184E-02  1.633298E+00  4.159258E-02
         8  22 -9.262434E-03  1.432871E-03  3.227074E-03  9.993829E-04  1.638787E+00 -5.807659E-03
         8  23 -1.901950E-02 -5.452862E-04 -4.707074E-03 -3.297048E-05  1.018597E+00  1.721686E-02
         8  24 -1.064279E-02  1.086154E-04 -2.359849E-03 -1.265035E-03  1.635572E+00  4.216489E-02
         8  25 -5.193915E+01 -1.290211E-01 -1.168808E-01  2.640592E-02  1.370725E+00 -5.325156E-03
         8  26 -5.444692E+01  1.767700E-02 -3.152125E-02  3.545038E-02  7.627157E-01  1.774261E-02
         8  27 -5.694105E+01  1.562568E-01  5.950995E-02  4.429514E-02  1.392295E+00  4.273690E-02
         9   1  5.926334E+01  1.385108E-01  1.801131E-01  1.438892E-02  1.601212E+00 -2.226244E-02
         9   2  6.175218E+01  5.963967E-02 -1.279319E-01 -1.578969E-02  9.579417E-01  7.127231E-02
         9   3  6.426568E+01 -2.222617E-02 -4.291761E-01 -4.577026E-02  1.570434E+00  1.660037E-01
         9   4 -8.736487E-03  1.708587E-03 -1.469658E-03 -1.282891E-03  1.643719E+00 -2.280312E-02
         9   5 -2.326248E-02 -8.347456E-04 -9.449060E-03  1.014718E-04  1.020083E+00  7.072231E-02
         9   6 -1.041751E-02  3.255655E-04 -7.795905E-03  1.684595E-03  1.652763E+00  1.654496E-01
         9   7 -5.921354E+01 -1.340054E-01 -1.787210E-01 -1.673111E-02  1.370138E+00 -2.334360E-02
         9   8 -6.172455E+01 -5.962534E-02  1.148033E-01  1.619739E-02  7.661194E-01  7.017233E-02
         9   9 -6.420519E+01  2.521585E-02  4.208549E-01  4.932338E-02  1.418966E+00  1.648954E-01
         9  10  5.923306E+01  1.247840E-01  1.655841E-01 -2.457452E-13  1.541039E+00 -1.424074E-13
         9  11  6.172187E+01  4.587054E-02 -1.424985E-01  2.064578E-14  8.876038E-01 -1.606904E-12
         9  12  6.423532E+01 -3.605204E-02 -4.437960E-01  1.476540E-13  1.489930E+00 -2.326180E-12
         9  13 -1.054333E-02  1.764409E-04 -3.804689E-03 -1.138883E-13  1.583608E+00 -1.496937E-12
         9  14 -2.508862E-02 -2.409135E-03 -1.182166E-02 -1.384561E-13  9.498100E-01 -8.998575E-13
         9  15 -1.229476E-02 -1.305373E-03 -1.022183E-02 -1.844745E-13  1.572328E+00 -1.067714E-12
         9  16 -5.918692E+01 -1.233440E-01 -1.688619E-01  1.764616E-13  1.310088E+00  1.211965E-12
         9  17 -6.169795E+01 -4.900622E-02  1.246247E-01  7.122448E-14  6.959109E-01 -1.175484E-12
         9  18 -6.417864E+01  3.577828E-02  4.306229E-01 -8.289437E-14  1.338600E+00  7.177230E-13
         9  19  5.926334E+01  1.385108E-01  1.801131E-01 -1.438892E-02  1.601212E+00  2.226244E-02
         9  20  6.175218E+01  5.963967E-02 -1.279319E-01  1.578969E-02  9.579417E-01 -7.127231E-02
         9  21  6.426568E+01 -2.222617E-02 -4.291761E-01  4.577026E-02  1.570434E+00 -1.660037E-01
         9  22 -8.736487E-03  1.708587E-03 -1.469658E-03  1.282891E-03  1.643719E+00  2.280312E-02
         9  23 -2.326248E-02 -8.347456E-04 -9.449060E-03 -1.014718E-04  1.020083E+00 -7.072231E-02
         9  24 -1.041751E-02  3.255655E-04 -7.795905E-03 -1.684595E-03  1.652763E+00 -1.654496E-01
         9  25 -5.921354E+01 -1.340054E-01 -1.787210E-01  1.673111E-02  1.370138E+00  2.334360E-02
         9  26 -6.172455E+01 -5.962534E-02  1.148033E-01 -1.619739E-02  7.661194E-01 -7.017233E-02
         9  27 -6.420519E+01  2.521585E-02  4.208549E-01 -4.932338E-02  1.418966E+00 -1.648954E-01
        10   1  6.649596E+01  1.354196E-01 -4.251422E-02  8.684407E-02  1.668142E+00  9.436974E-02
        10   2  6.894125E+01 -2.504429E-01  4.703508E-01  1.257081E-01  1.046841E+00 -2.800389E-01
        10   3  7.154466E+01 -3.511797E-01  1.112325E+00  1.648983E-01  1.588925E+00 -7.043946E-01
        10   4 -7.948152E-03  2.201054E-03 -6.850280E-03 -1.549499E-03  1.617813E+00  9.363464E-02
        10   5 -2.770560E-02 -9.062058E-04 -1.444254E-02 -1.672834E-04  1.025215E+00 -2.809268E-01
        10   6 -9.519538E-03  1.133170E-03 -1.294466E-02  1.540936E-03  1.596298E+00 -7.054999E-01
        10   7 -6.642769E+01 -1.292393E-01  3.630044E-02 -8.953998E-02  1.535791E+00  9.289958E-02
        10   8 -6.890557E+01  2.511389E-01 -4.913063E-01 -1.256315E-01  9.718647E-01 -2.818150E-01
        10   9 -7.146546E+01  3.565088E-01 -1.129920E+00 -1.613982E-01  1.571909E+00 -7.066058E-01
        10  10  6.656094E+01  1.622526E-01 -1.678028E-02 -1.764609E-13  1.442081E+00 -8.270341E-13
        10  11  6.900611E+01 -2.237071E-01  4.960578E-01  1.922903E-13  8.449916E-01 -9.612141E-13
        10  12  7.160945E+01 -3.245177E-01  1.138007E+00 -3.037239E-13  1.411292E+00 -2.009002E-13
        10  13 -1.083334E-02 -2.042936E-05 -1.017191E-02  2.239630E-15  1.391915E+00  4.654829E-13
        10  14 -3.071736E-02 -3.225389E-03 -1.779175E-02  6.220791E-14  8.235316E-01  5.575571E-13
        10  15 -1.260119E-02 -1.260052E-03 -1.631940E-02  4.478118E-14  1.418828E+00 -1.100790E-13
        10  16 -6.649830E+01 -1.605190E-01  3.921702E-03 -4.548572E-14  1.310058E+00 -5.155120E-13
        10  17 -6.897630E+01  2.197619E-01 -5.237124E-01 -1.787644E-13  7.703462E-01  1.071924E-12
        10  18 -7.153626E+01  3.250579E-01 -1.162352E+00 -3.292557E-14  1.394601E+00  1.578584E-12
        10  19  6.649596E+01  1.354196E-01 -4.251422E-02 -8.684407E-02  1.668142E+00 -9.436974E-02
        10  20  6.894125E+01 -2.504429E-01  4.703508E-01 -1.257081E-01  1.046841E+00  2.800389E-01
        10  21  7.154466E+01 -3.511797E-01  1.112325E+00 -1.648983E-01  1.588925E+00  7.043946E-01
        10  22 -7.948151E-03  2.201054E-03 -6.850280E-03  1.549499E-03  1.617813E+00 -9.363464E-02
        10  23 -2.770560E-02 -9.062058E-04 -1.444254E-02  1.672834E-04  1.025215E+00  2.809268E-01
        10  24 -9.519537E-03  1.133170E-03 -1.294466E-02 -1.540936E-03  1.596298E+00  7.054999E-01
        10  25 -6.642769E+01 -1.292393E-01  3.630044E-02  8.953998E-02  1.535791E+00 -9.289958E-02
        10  26 -6.890557E+01  2.511389E-01 -4.913063E-01  1.256315E-01  9.718647E-01  2.818150E-01
        10  27 -7.146546E+01  3.565088E-01 -1.129920E+00  1.613982E-01  1.571909E+00  7.066058E-01
        11   1  7.154466E+01 -3.511797E-01  1.112325E+00 -1.648983E-01 -1.588925E+00 -7.043946E-01
        11   2  6.894125E+01 -2.504429E-01  4.703508E-01 -1.257081E-01 -1.046841E+00 -2.800389E-01
        11   3  6.649596E+01  1.354196E-01 -4.251422E-02 -8.684407E-02 -1.668142E+00  9.436974E-02
        11   4 -9.519538E-03  1.133170E-03 -1.294466E-02 -1.540936E-03 -1.596298E+00 -7.054999E-01
        11   5 -2.770560E-02 -9.062058E-04 -1.444254E-02  1.672834E-04 -1.025215E+00 -2.809268E-01
        11   6 -7.948152E-03  2.201054E-03 -6.850280E-03  1.549499E-03 -1.617813E+00  9.363464E-02
        11   7 -7.146546E+01  3.565088E-01 -1.129920E+00  1.613982E-01 -1.571909E+00 -7.066058E-01
        11   8 -6.890557E+01  2.511389E-01 -4.913063E-01  1.256315E-01 -9.718647E-01 -2.818150E-01
        11   9 -6.642769E+01 -1.292393E-01  3.630044E-02  8.953998E-02 -1.535791E+00  9.289958E-02
        11  10  7.160945E+01 -3.245177E-01  1.138007E+00 -1.545070E-13 -1.411292E+00  6.686972E-13
        11  11  6.900611E+01 -2.237071E-01  4.960578E-01  1.807049E-13 -8.449916E-01  2.799216E-12
        11  12  6.656094E+01  1.622526E-01 -1.678028E-02 -5.588717E-13 -1.442081E+00 -3.889437E-13
        11  13 -1.260119E-02 -1.260052E-03 -1.631940E-02  5.630420E-14 -1.418828E+00  1.573687E-13
        11  14 -3.071736E-02 -3.225389E-03 -1.779175E-02  1.260963E-13 -8.235316E-01 -2.589847E-13
        11  15 -1.083334E-02 -2.042936E-05 -1.017191E-02 -4.849173E-14 -1.391915E+00  9.632903E-13
        11  16 -7.153626E+01  3.250579E-01 -1.162352E+00 -2.377249E-13 -1.394601E+00  1.940389E-12
        11  17 -6.897630E+01  2.197619E-01 -5.237124E-01 -2.420931E-13 -7.703462E-01  1.495991E-12
        11  18 -6.649830E+01 -1.605190E-01  3.921702E-03  4.359959E-13 -1.310058E+00  1.730797E-12
        11  19  7.154466E+01 -3.511797E-01  1.112325E+00  1.648983E-01 -1.588925E+00  7.043946E-01
        11  20  6.894125E+01 -2.504429E-01  4.703508E-01  1.257081E-01 -1.046841E+00  2.800389E-01
        11  21  6.649596E+01  1.354196E-01 -4.251422E-02  8.684407E-02 -1.668142E+00 -9.436974E-02
        11  22 -9.519537E-03  1.133170E-03 -1.294466E-02  1.540936E-03 -1.596298E+00  7.054999E-01
        11  23 -2.770560E-02 -9.062058E-04 -1.444254E-02 -1.672834E-04 -1.025215E+00  2.809268E-01
        11  24 -7.948151E-03  2.201054E-03 -6.850280E-03 -1.549499E-03 -1.617813E+00 -9.363464E-02
        11  25 -7.146546E+01  3.565088E-01 -1.129920E+00 -1.613982E-01 -1.571909E+00  7.066058E-01
        11  26 -6.890557E+01  2.511389E-01 -4.913063E-01 -1.256315E-01 -9.718647E-01  2.818150E-01
        11  27 -6.642769E+01 -1.292393E-01  3.630044E-02 -8.953998E-02 -1.535791E+00 -9.289958E-02
        12   1  6.426568E+01 -2.222617E-02 -4.291761E-01  4.577026E-02 -1.570434E+00  1.660037E-01
        12   2  6.175218E+01  5.963967E-02 -1.279319E-01  1.578969E-02 -9.579417E-01  7.127231E-02
        12   3  5.926334E+01  1.385108E-01  1.801131E-01 -1.438892E-02 -1.601212E+00 -2.226244E-02
        12   4 -1.041751E-02  3.255655E-04 -7.795905E-03 -1.684595E-03 -1.652763E+00  1.654496E-01
        12   5 -2.326248E-02 -8.347456E-04 -9.449060E-03 -1.014718E-04 -1.020083E+00  7.072231E-02
        12   6 -8.736487E-03  1.708587E-03 -1.469658E-03  1.282891E-03 -1.643719E+00 -2.280312E-02
        12   7 -6.420519E+01  2.521585E-02  4.208549E-01 -4.932338E-02 -1.418966E+00  1.648954E-01
        12   8 -6.172455E+01 -5.962534E-02  1.148033E-01 -1.619739E-02 -7.661194E-01  7.017233E-02
        12   9 -5.921354E+01 -1.340054E-01 -1.787210E-01  1.673111E-02 -1.370138E+00 -2.334360E-02
        12  10  6.423532E+01 -3.605204E-02 -4.437960E-01  2.610417E-13 -1.489930E+00 -4.614177E-13
        12  11  6.172187E+01  4.587054E-02 -1.424985E-01  1.211016E-13 -8.876038E-01  4.426817E-14
        12  12  5.923306E+01  1.247840E-01  1.655841E-01 -3.668922E-13 -1.541039E+00  1.135811E-13
        12  13 -1.229476E-02 -1.305373E-03 -1.022183E-02 -2.019665E-13 -1.572328E+00  2.258870E-12
        12  14 -2.508862E-02 -2.409135E-03 -1.182166E-02 -9.256912E-14 -9.498100E-01 -3.448547E-13
        12  15 -1.054333E-02  1.764409E-04 -3.804689E-03 -2.185317E-13 -1.583608E+00  2.267030E-13
        12  16 -6.417864E+01  3.577828E-02  4.306229E-01 -1.342998E-13 -1.338600E+00  2.038686E-12
        12  17 -6.169795E+01 -4.900622E-02  1.246247E-01  3.160960E-13 -6.959109E-01 -2.419614E-13
        12  18 -5.918692E+01 -1.233440E-01 -1.688619E-01  5.837897E-13 -1.310088E+00  9.838583E-13
        12  19  6.426568E+01 -2.222617E-02 -4.291761E-01 -4.577026E-02 -1.570434E+00 -1.660037E-01
        12  20  6.175218E+01  5.963967E-02 -1.279319E-01 -1.578969E-02 -9.579417E-01 -7.127231E-02
        12  21  5.926334E+01  1.385108E-01  1.801131E-01  1.438892E-02 -1.601212E+00  2.226244E-02
        12  22 -1.041751E-02  3.255655E-04 -7.795905E-03  1.684595E-03 -1.652763E+00 -1.654496E-01
        12  23 -2.326248E-02 -8.347456E-04 -9.449060E-03  1.014718E-04 -1.020083E+00 -7.072231E-02
        12  24 -8.736487E-03  1.708587E-03 -1.469658E-03 -1.282891E-03 -1.643719E+00  2.280312E-02
        12  25 -6.420519E+01  2.521585E-02  4.208549E-01  4.932338E-02 -1.418966E+00 -1.648954E-01
        12  26 -6.172455E+01 -5.962534E-02  1.148033E-01  1.619739E-02 -7.661194E-01 -7.017233E-02
        12  27 -5.921354E+01 -1.340054E-01 -1.787210E-01 -1.673111E-02 -1.370138E+00  2.334360E-02
        13   1  5.698439E+01 -1.540247E-01 -5.907323E-02 -4.707184E-02 -1.633298E+00 -4.159258E-02
        13   2  5.446731E+01 -1.731139E-02  2.619575E-02 -3.575039E-02 -1.028933E+00 -1.669075E-02
        13   3  5.197315E+01  1.328338E-01  1.263982E-01 -2.462916E-02 -1.661310E+00  6.290610E-03
        13   4 -1.064279E-02  1.086154E-04 -2.359849E-03 -1.265035E-03 -1.635572E+00 -4.216489E-02
        13   5 -1.901950E-02 -5.452862E-04 -4.707074E-03 -3.297048E-05 -1.018597E+00 -1.721686E-02
        13   6 -9.262434E-03  1.432871E-03  3.227074E-03  9.993829E-04 -1.638787E+00  5.807659E-03
        13   7 -5.694105E+01  1.562568E-01  5.950995E-02  4.429514E-02 -1.392295E+00 -4.273690E-02
        13   8 -5.444692E+01  1.767700E-02 -3.152125E-02  3.545038E-02 -7.627157E-01 -1.774261E-02
        13   9 -5.193915E+01 -1.290211E-01 -1.168808E-01  2.640592E-02 -1.370725E+00  5.325156E-03
        13  10  5.699313E+01 -1.510852E-01 -5.709420E-02  3.062300E-13 -1.537805E+00 -3.886421E-14
        13  11  5.447615E+01 -1.430063E-02  2.823072E-02  1.052333E-13 -9.298105E-01  5.815066E-13
        13  12  5.198208E+01  1.359158E-01  1.284856E-01 -3.089161E-13 -1.558559E+00  8.499071E-13
        13  13 -1.207635E-02 -1.308816E-03 -4.738556E-03 -2.262955E-13 -1.540141E+00  1.007415E-12
        13  14 -2.035867E-02 -1.891444E-03 -7.029737E-03 -9.292987E-14 -9.195340E-01 -3.556301E-13
        13  15 -1.050588E-02  1.580041E-04  9.569891E-04 -1.704456E-13 -1.536093E+00  1.434307E-12
        13  16 -5.695265E+01  1.504812E-01  5.277393E-02 -2.118856E-13 -1.296924E+00 -3.472157E-13
        13  17 -5.445842E+01  1.197263E-02 -3.820116E-02  1.903788E-13 -6.637124E-01  9.491370E-13
        13  18 -5.195055E+01 -1.346542E-01 -1.235081E-01  1.398139E-13 -1.268089E+00 -5.434864E-13
        13  19  5.698439E+01 -1.540247E-01 -5.907323E-02  4.707184E-02 -1.633298E+00  4.159258E-02
        13  20  5.446731E+01 -1.731139E-02  2.619575E-02  3.575039E-02 -1.028933E+00  1.669075E-02
        13  21  5.197315E+01  1.328338E-01  1.263982E-01  2.462916E-02 -1.661310E+00 -6.290610E-03
        13  22 -1.064279E-02  1.086154E-04 -2.359849E-03  1.265035E-03 -1.635572E+00  4.216489E-02
        13  23 -1.901950E-02 -5.452862E-04 -4.707074E-03  3.297048E-05 -1.018597E+00  1.721686E-02
        13  24 -9.262434E-03  1.432871E-03  3.227074E-03 -9.993829E-04 -1.638787E+00 -5.807659E-03
        13  25 -5.694105E+01  1.562568E-01  5.950995E-02 -4.429514E-02 -1.392295E+00  4.273690E-02
        13  26 -5.444692E+01  1.767700E-02 -3.152125E-02 -3.545038E-02 -7.627157E-01  1.774261E-02
        13  27 -5.193915E+01 -1.290211E-01 -1.168808E-01 -2.640592E-02 -1.370725E+00 -5.325156E-03
        14   1  4.971824E+01 -1.261035E-01 -1.461448E-01 -1.756928E-02 -1.656059E+00  1.075875E-02
        14   2  4.720960E+01  4.797677E-03 -6.019278E-03 -2.005497E-02 -1.040148E+00  4.697757E-03
        14   3  4.471026E+01  1.352909E-01  1.442961E-01 -2.270497E-02 -1.666177E+00 -9.287817E-04
        14   4 -1.090721E-02  5.967852E-06  2.462845E-03 -9.844388E-04 -1.640977E+00  1.031771E-02
        14   5 -1.537848E-02 -4.291148E-04 -7.179478E-04 -4.199067E-05 -1.019285E+00  4.288757E-03
        14   6 -9.671808E-03  1.129867E-03  7.300804E-03  7.362499E-04 -1.639914E+00 -1.305519E-03
        14   7 -4.969008E+01  1.276076E-01  1.542813E-01  1.540191E-02 -1.363049E+00  9.877083E-03
        14   8 -4.719579E+01 -4.629204E-03  6.822012E-03  1.977642E-02 -7.355748E-01  3.880245E-03
        14   9 -4.469016E+01 -1.324124E-01 -1.283786E-01  2.398701E-02 -1.350801E+00 -1.681686E-03
        14  10  4.971418E+01 -1.285436E-01 -1.495338E-01 -5.808800E-13 -1.561779E+00  3.409616E-13
        14  11  4.720560E+01  2.409401E-03 -9.362742E-03  9.323370E-14 -9.470514E-01 -1.505395E-12
        14  12  4.470631E+01  1.329499E-01  1.409909E-01 -4.380965E-13 -1.574264E+00 -7.263706E-13
        14  13 -1.165398E-02 -1.016488E-03  4.908906E-04 -9.573447E-14 -1.546758E+00  8.329622E-13
        14  14 -1.607086E-02 -1.399720E-03 -2.644305E-03 -3.815448E-14 -9.262469E-01  1.500185E-12
        14  15 -1.031885E-02  2.065654E-04  5.412727E-03 -2.669439E-13 -1.548057E+00 -6.087980E-13
        14  16 -4.968752E+01  1.280016E-01  1.537267E-01  1.777144E-13 -1.268891E+00 -2.808680E-13
        14  17 -4.719318E+01 -4.183405E-03  6.313071E-03 -7.192879E-14 -6.425949E-01 -1.443065E-12
        14  18 -4.468750E+01 -1.319193E-01 -1.288492E-01  3.144568E-13 -1.259000E+00 -1.150030E-12
        14  19  4.971824E+01 -1.261035E-01 -1.461448E-01  1.756928E-02 -1.656059E+00 -1.075875E-02
        14  20  4.720960E+01  4.797677E-03 -6.019278E-03  2.005497E-02 -1.040148E+00 -4.697757E-03
        14  21  4.471026E+01  1.352909E-01  1.442961E-01  2.270497E-02 -1.666177E+00  9.287817E-04
        14  22 -1.090721E-02  5.967849E-06  2.462845E-03  9.844388E-04 -1.640977E+00 -1.031771E-02
        14  23 -1.537848E-02 -4.291148E-04 -7.179478E-04  4.199067E-05 -1.019285E+00 -4.288757E-03
        14  24 -9.671808E-03  1.129867E-03  7.300804E-03 -7.362499E-04 -1.639914E+00  1.305519E-03
        14  25 -4.969008E+01  1.276076E-01  1.542813E-01 -1.540191E-02 -1.363049E+00 -9.877083E-03
        14  26 -4.719579E+01 -4.629204E-03  6.822012E-03 -1.977642E-02 -7.355748E-01 -3.880245E-03
        14  27 -4.469016E+01 -1.324124E-01 -1.283786E-01 -2.398701E-02 -1.350801E+00  1.681686E-03
        15   1  4.244841E+01 -1.340352E-01 -1.208724E-01 -2.637682E-02 -1.665545E+00 -2.105023E-03
        15   2  3.994252E+01 -1.474204E-03  5.778941E-03 -2.443458E-02 -1.045159E+00 -9.531962E-04
        15   3  3.744053E+01  1.334446E-01  1.447428E-01 -2.263397E-02 -1.665595E+00  2.971501E-05
        15   4 -1.109166E-02 -9.027705E-05  6.640864E-03 -7.253742E-04 -1.639402E+00 -2.469699E-03
        15   5 -1.223570E-02 -2.920340E-04  2.759528E-03 -3.360406E-05 -1.019017E+00 -1.289532E-03
        15   6 -1.004518E-02  8.838677E-04  1.075516E-02  5.167110E-04 -1.639773E+00 -2.787959E-04
        15   7 -4.243323E+01  1.350375E-01  1.357967E-01  2.475655E-02 -1.354386E+00 -2.833858E-03
        15   8 -3.993423E+01  1.644209E-03  5.537291E-04  2.420445E-02 -7.339956E-01 -1.625315E-03
        15   9 -3.743218E+01 -1.312958E-01 -1.231999E-01  2.351100E-02 -1.355065E+00 -5.867188E-04
        15  10  4.244935E+01 -1.342710E-01 -1.220931E-01 -2.559589E-13 -1.571723E+00  7.001581E-13
        15  11  3.994352E+01 -1.662363E-03  4.596330E-03 -3.881870E-13 -9.509073E-01  3.515114E-12
        15  12  3.744158E+01  1.333008E-01  1.435922E-01  3.273897E-13 -1.570914E+00  3.221892E-13
        15  13 -1.136147E-02 -8.437763E-04  4.901806E-03 -4.816237E-13 -1.545627E+00 -1.676857E-12
        15  14 -1.244715E-02 -9.979406E-04  1.058648E-03 -1.031694E-13 -9.248101E-01  2.633176E-12
        15  15 -1.020429E-02  2.223268E-04  9.086312E-03 -3.159500E-13 -1.545134E+00  3.850375E-13
        15  16 -4.243471E+01  1.337650E-01  1.335397E-01 -6.044268E-14 -1.260658E+00 -4.193794E-12
        15  17 -3.993565E+01  4.192870E-04 -1.665089E-03  5.805776E-13 -6.398333E-01 -1.603818E-12
        15  18 -3.743354E+01 -1.324763E-01 -1.253867E-01 -8.545014E-13 -1.260468E+00 -2.110162E-12
        15  19  4.244841E+01 -1.340352E-01 -1.208724E-01  2.637682E-02 -1.665545E+00  2.105023E-03
        15  20  3.994252E+01 -1.474204E-03  5.778941E-03  2.443458E-02 -1.045159E+00  9.531962E-04
        15  21  3.744053E+01  1.334446E-01  1.447428E-01  2.263397E-02 -1.665595E+00 -2.971501E-05
        15  22 -1.109166E-02 -9.027705E-05  6.640864E-03  7.253742E-04 -1.639402E+00  2.469699E-03
        15  23 -1.223570E-02 -2.920340E-04  2.759528E-03  3.360406E-05 -1.019017E+00  1.289532E-03
        15  24 -1.004518E-02  8.838677E-04  1.075516E-02 -5.167110E-04 -1.639773E+00  2.787959E-04
        15  25 -4.243323E+01  1.350375E-01  1.357967E-01 -2.475655E-02 -1.354386E+00  2.833858E-03
        15  26 -3.993423E+01  1.644209E-03  5.537291E-04 -2.420445E-02 -7.339956E-01  1.625315E-03
        15  27 -3.743218E+01 -1.312958E-01 -1.231999E-01 -2.351100E-02 -1.355065E+00  5.867187E-04
        16   1  3.518191E+01 -1.321717E-01 -1.222831E-01 -2.359693E-02 -1.660720E+00  5.596398E-04
        16   2  3.267961E+01  1.542870E-03  3.972266E-03 -2.417554E-02 -1.035164E+00  1.584826E-03
        16   3  3.017474E+01  1.353297E-01  1.423624E-01 -2.486880E-02 -1.650451E+00  2.760385E-03
        16   4 -1.122099E-02 -1.339601E-04  1.020769E-02 -5.057528E-04 -1.639768E+00  2.662009E-04
        16   5 -9.613745E-03 -1.931766E-04  5.648007E-03 -2.489711E-05 -1.019046E+00  1.315376E-03
        16   6 -1.036665E-02  6.287347E-04  1.355683E-02  3.413854E-04 -1.639427E+00  2.514576E-03
        16   7 -3.517767E+01  1.327359E-01  1.429593E-01  2.243838E-02 -1.359975E+00 -2.667426E-05
        16   8 -3.267593E+01 -1.395649E-03  6.926406E-03  2.398431E-02 -7.440779E-01  1.046510E-03
        16   9 -3.017604E+01 -1.337807E-01 -1.162561E-01  2.541579E-02 -1.369545E+00  2.269374E-03
        16  10  3.518104E+01 -1.331247E-01 -1.242468E-01 -9.041897E-13 -1.566006E+00 -4.982132E-13
        16  11  3.267878E+01  6.297353E-04  2.047350E-03 -4.303560E-13 -9.408225E-01  1.578460E-12
        16  12  3.017395E+01  1.344527E-01  1.404697E-01 -1.433497E-12 -1.556481E+00 -1.584420E-13
        16  13 -1.105341E-02 -6.429550E-04  8.687403E-03 -9.536151E-14 -1.545098E+00 -1.235078E-12
        16  14 -9.402870E-03 -6.623254E-04  4.166593E-03  3.435442E-13 -9.247458E-01 -1.317222E-12
        16  15 -1.011976E-02  1.956424E-04  1.210760E-02  1.982616E-13 -1.545497E+00  2.878975E-12
        16  16 -3.517647E+01  1.326697E-01  1.418828E-01 -7.548136E-14 -1.265350E+00  2.636246E-13
        16  17 -3.267468E+01 -1.422080E-03  5.888826E-03  2.211147E-14 -6.498196E-01 -3.540665E-13
        16  18 -3.017476E+01 -1.337711E-01 -1.172615E-01  1.496054E-13 -1.275654E+00 -1.205088E-12
        16  19  3.518191E+01 -1.321717E-01 -1.222831E-01  2.359693E-02 -1.660720E+00 -5.596399E-04
        16  20  3.267961E+01  1.542870E-03  3.972266E-03  2.417554E-02 -1.035164E+00 -1.584826E-03
        16  21  3.017474E+01  1.353297E-01  1.423624E-01  2.486880E-02 -1.650451E+00 -2.760385E-03
        16  22 -1.122099E-02 -1.339601E-04  1.020769E-02  5.057528E-04 -1.639768E+00 -2.662009E-04
        16  23 -9.613745E-03 -1.931766E-04  5.648007E-03  2.489711E-05 -1.019046E+00 -1.315376E-03
        16  24 -1.036665E-02  6.287347E-04  1.355683E-02 -3.413854E-04 -1.639427E+00 -2.514576E-03
        16  25 -3.517767E+01  1.327359E-01  1.429593E-01 -2.243838E-02 -1.359975E+00  2.667426E-05
        16  26 -3.267593E+01 -1.395649E-03  6.926406E-03 -2.398431E-02 -7.440779E-01 -1.046510E-03
        16  27 -3.017604E+01 -1.337807E-01 -1.162561E-01 -2.541579E-02 -1.369545E+00 -2.269374E-03
        17   1  2.791418E+01 -1.333733E-01 -1.224075E-01 -2.354873E-02 -1.641687E+00  1.525083E-03
        17   2  2.541419E+01 -4.214611E-03  1.532471E-02 -2.083033E-02 -1.012157E+00 -4.201638E-03
        17   3  2.290826E+01  1.273955E-01  1.668798E-01 -1.820278E-02 -1.624710E+00 -1.027075E-02
        17   4 -1.130039E-02 -1.768374E-04  1.312958E-02 -3.316558E-04 -1.639942E+00  1.298365E-03
        17   5 -7.487299E-03 -7.582461E-05  7.987703E-03 -2.896640E-05 -1.019167E+00 -4.412377E-03
        17   6 -1.059158E-02  5.277906E-04  1.582149E-02  1.829840E-04 -1.640678E+00 -1.046571E-02
        17   7 -2.791879E+01  1.336191E-01  1.477666E-01  2.279534E-02 -1.375165E+00  1.072044E-03
        17   8 -2.541422E+01  4.248558E-03 -8.482233E-04  2.068890E-02 -7.631340E-01 -4.622732E-03
        17   9 -2.291725E+01 -1.265127E-01 -1.372860E-01  1.849171E-02 -1.393595E+00 -1.066030E-02
        17  10  2.791704E+01 -1.326700E-01 -1.227059E-01 -6.335225E-13 -1.549780E+00 -3.721111E-13
        17  11  2.541709E+01 -3.486614E-03  1.503120E-02  2.426129E-13 -9.194139E-01  5.238942E-13
        17  12  2.291119E+01  1.281451E-01  1.665854E-01 -9.804492E-13 -1.531130E+00  1.632259E-12
        17  13 -1.079125E-02 -4.803812E-04  1.182367E-02 -8.920448E-14 -1.548058E+00  5.803456E-13
        17  14 -6.939828E-03 -3.546887E-04  6.686746E-03  8.810400E-14 -9.264429E-01  4.153897E-12
        17  15 -1.001156E-02  2.705350E-04  1.451960E-02 -6.480027E-13 -1.547115E+00  2.860149E-12
        17  16 -2.792063E+01  1.323074E-01  1.454536E-01 -2.730868E-13 -1.283303E+00 -8.887343E-13
        17  17 -2.541602E+01  2.961571E-03 -3.156313E-03  1.567182E-13 -6.704300E-01  4.673893E-14
        17  18 -2.291902E+01 -1.277781E-01 -1.395950E-01  7.624649E-13 -1.300049E+00  4.978261E-13
        17  19  2.791418E+01 -1.333733E-01 -1.224075E-01  2.354873E-02 -1.641687E+00 -1.525083E-03
        17  20  2.541419E+01 -4.214611E-03  1.532471E-02  2.083033E-02 -1.012157E+00  4.201638E-03
        17  21  2.290826E+01  1.273955E-01  1.668798E-01  1.820278E-02 -1.624710E+00  1.027075E-02
        17  22 -1.130039E-02 -1.768374E-04  1.312958E-02  3.316558E-04 -1.639942E+00 -1.298365E-03
        17  23 -7.487299E-03 -7.582461E-05  7.987703E-03  2.896640E-05 -1.019167E+00  4.412377E-03
        17  24 -1.059158E-02  5.277906E-04  1.582149E-02 -1.829840E-04 -1.640678E+00  1.046571E-02
        17  25 -2.791879E+01  1.336191E-01  1.477666E-01 -2.279534E-02 -1.375165E+00 -1.072044E-03
        17  26 -2.541422E+01  4.248558E-03 -8.482233E-04 -2.068890E-02 -7.631340E-01  4.622732E-03
        17  27 -2.291725E+01 -1.265127E-01 -1.372860E-01 -1.849171E-02 -1.393595E+00  1.066030E-02
        18   1  2.065331E+01 -1.323722E-01 -1.064084E-01 -2.648949E-02 -1.622526E+00 -5.510118E-03
        18   2  1.815618E+01  1.544839E-02 -2.127479E-02 -3.218525E-02 -9.915210E-01  1.788245E-02
        18   3  1.564559E+01  1.558212E-01  7.373183E-02 -3.793925E-02 -1.597422E+00  4.262720E-02
        18   4 -1.137141E-02 -1.202496E-04  1.546106E-02 -1.852943E-04 -1.638531E+00 -5.730046E-03
        18   5 -5.991759E-03 -8.511220E-05  9.728892E-03  8.392033E-06 -1.019036E+00  1.768215E-02
        18   6 -1.098083E-02  3.694809E-05  1.708920E-02  1.437500E-04 -1.636588E+00  4.244540E-02
        18   7 -2.066463E+01  1.324878E-01  1.358206E-01  2.597711E-02 -1.409304E+00 -5.949262E-03
        18   8 -1.815873E+01 -1.505422E-02  3.902735E-02  3.206548E-02 -8.013098E-01  1.748257E-02
        18   9 -1.565981E+01 -1.549162E-01 -4.140784E-02  3.809570E-02 -1.430505E+00  4.226430E-02
        18  10  2.064796E+01 -1.351995E-01 -1.103691E-01 -3.339526E-13 -1.519985E+00 -5.001273E-13
        18  11  1.815085E+01  1.266148E-02 -2.515156E-02 -7.566859E-13 -8.911614E-01  6.767468E-13
        18  12  1.564027E+01  1.530700E-01  6.993108E-02 -1.798307E-12 -1.499244E+00  3.772610E-14
        18  13 -1.061719E-02 -3.321359E-04  1.411531E-02 -4.185927E-13 -1.536044E+00 -1.448633E-12
        18  14 -5.215418E-03 -2.566651E-04  8.467075E-03  2.032417E-13 -9.187269E-01 -9.144630E-13
        18  15 -1.019119E-02 -9.892998E-05  1.590336E-02  1.601285E-13 -1.538458E+00 -1.728687E-12
        18  16 -2.065778E+01  1.348900E-01  1.370902E-01 -2.901836E-13 -1.306870E+00  2.023070E-12
        18  17 -1.815185E+01 -1.261172E-02  4.038086E-02  2.867299E-13 -7.010515E-01  2.438054E-12
        18  18 -1.565292E+01 -1.524380E-01 -3.997835E-02  2.377550E-13 -1.332423E+00  4.230400E-12
        18  19  2.065331E+01 -1.323722E-01 -1.064084E-01  2.648949E-02 -1.622526E+00  5.510118E-03
        18  20  1.815618E+01  1.544839E-02 -2.127479E-02  3.218525E-02 -9.915210E-01 -1.788245E-02
        18  21  1.564559E+01  1.558212E-01  7.373183E-02  3.793925E-02 -1.597422E+00 -4.262720E-02
        18  22 -1.137141E-02 -1.202496E-04  1.546106E-02  1.852943E-04 -1.638531E+00  5.730046E-03
        18  23 -5.991759E-03 -8.511220E-05  9.728892E-03 -8.392032E-06 -1.019036E+00 -1.768215E-02
        18  24 -1.098083E-02  3.694809E-05  1.708920E-02 -1.437500E-04 -1.636588E+00 -4.244540E-02
        18  25 -2.066463E+01  1.324878E-01  1.358206E-01 -2.597711E-02 -1.409304E+00  5.949262E-03
        18  26 -1.815873E+01 -1.505422E-02  3.902735E-02 -3.206548E-02 -8.013098E-01 -1.748257E-02
        18  27 -1.565981E+01 -1.549162E-01 -4.140784E-02 -3.809570E-02 -1.430505E+00 -4.226430E-02
        19   1  1.337729E+01 -1.304559E-01 -1.611356E-01 -1.189429E-02 -1.559128E+00  2.253286E-02
        19   2  1.088403E+01 -5.189914E-02  1.369817E-01  9.612214E-04 -9.187384E-01 -7.207472E-02
        19   3  8.379790E+00  3.021625E-02  4.508048E-01  1.377874E-02 -1.534933E+00 -1.672738E-01
        19   4 -1.099919E-02 -1.877051E-04  1.702487E-02 -9.501954E-05 -1.644495E+00  2.248989E-02
        19   5 -4.488364E-03  7.361830E-05  1.072999E-02 -4.501326E-05 -1.017996E+00 -7.210704E-02
        19   6 -1.052031E-02  5.751931E-04  1.870060E-02 -3.257242E-05 -1.648175E+00 -1.672916E-01
        19   7 -1.339397E+01  1.299404E-01  1.915456E-01  1.177071E-02 -1.412705E+00  2.244657E-02
        19   8 -1.088941E+01  5.098980E-02 -1.197781E-01 -9.786336E-04 -8.000917E-01 -7.213976E-02
        19   9 -8.398655E+00 -3.098545E-02 -4.182154E-01 -1.376592E-02 -1.444251E+00 -1.673098E-01
        19  10  1.338993E+01 -1.253401E-01 -1.566793E-01 -2.378819E-13 -1.498016E+00  4.546515E-13
        19  11  1.089670E+01 -4.680686E-02  1.413201E-01 -3.398061E-13 -8.534802E-01  3.188200E-12
        19  12  8.392482E+00  3.528309E-02  4.550218E-01 -1.192672E-12 -1.465529E+00  2.080721E-12
        19  13 -9.967251E-03 -4.859573E-05  1.650369E-02 -1.225115E-13 -1.583337E+00  2.934350E-13
        19  14 -3.431793E-03  1.892770E-04  1.009083E-02  8.485123E-14 -9.526909E-01  6.639227E-12
        19  15 -9.442401E-03  6.654689E-04  1.794009E-02 -5.995723E-13 -1.578723E+00 -1.455858E-12
        19  16 -1.340455E+01  1.251018E-01  1.860470E-01 -8.447794E-13 -1.351501E+00  1.251236E-12
        19  17 -1.089996E+01  4.612771E-02 -1.253947E-01  2.804333E-13 -7.347395E-01 -1.803647E-12
        19  18 -8.409189E+00 -3.587298E-02 -4.239535E-01  7.559553E-13 -1.374751E+00 -1.668487E-12
        19  19  1.337729E+01 -1.304559E-01 -1.611356E-01  1.189429E-02 -1.559128E+00 -2.253286E-02
        19  20  1.088403E+01 -5.189914E-02  1.369817E-01 -9.612214E-04 -9.187384E-01  7.207472E-02
        19  21  8.379790E+00  3.021625E-02  4.508048E-01 -1.377874E-02 -1.534933E+00  1.672738E-01
        19  22 -1.099919E-02 -1.877051E-04  1.702487E-02  9.501954E-05 -1.644495E+00 -2.248989E-02
        19  23 -4.488364E-03  7.361830E-05  1.072999E-02  4.501326E-05 -1.017996E+00  7.210704E-02
        19  24 -1.052031E-02  5.751931E-04  1.870060E-02  3.257242E-05 -1.648175E+00  1.672916E-01
        19  25 -1.339397E+01  1.299404E-01  1.915456E-01 -1.177071E-02 -1.412705E+00 -2.244657E-02
        19  26 -1.088941E+01  5.098980E-02 -1.197781E-01  9.786336E-04 -8.000917E-01  7.213976E-02
        19  27 -8.398655E+00 -3.098545E-02 -4.182154E-01  1.376592E-02 -1.444251E+00  1.673098E-01
        20   1  6.125563E+00 -1.580481E-01  4.937319E-02 -9.520799E-02 -1.634726E+00 -9.003244E-02
        20   2  3.649343E+00  2.047383E-01 -4.946967E-01 -6.769994E-02 -1.037799E+00  2.880841E-01
        20   3  1.084714E+00  3.950482E-01 -1.105485E+00 -4.004637E-02 -1.609617E+00  6.962653E-01
        20   4 -1.370878E-02 -2.694474E-04  1.831315E-02 -2.875960E-04 -1.616278E+00 -9.070144E-02
        20   5 -5.264692E-03  1.251480E-03  1.345796E-02 -1.292570E-04 -1.032364E+00  2.874564E-01
        20   6 -1.323882E-02 -1.455585E-03  1.399263E-02  1.757928E-04 -1.617222E+00  6.956651E-01
        20   7 -6.141682E+00  1.605703E-01 -9.038673E-03  9.480029E-02 -1.567763E+00 -9.137140E-02
        20   8 -3.649691E+00 -2.006406E-01  5.246822E-01  6.762209E-02 -9.968602E-01  2.868277E-01
        20   9 -1.101863E+00 -3.977552E-01  1.135930E+00  4.058921E-02 -1.594756E+00  6.950638E-01
        20  10  6.128951E+00 -1.576991E-01  4.714805E-02 -8.718268E-13 -1.413642E+00 -1.384203E-12
        20  11  3.652692E+00  2.050320E-01 -4.970697E-01 -5.859769E-13 -8.156914E-01 -2.778319E-12
        20  12  1.088005E+00  3.952689E-01 -1.108039E+00 -1.300903E-12 -1.386487E+00  2.867604E-13
        20  13 -1.320814E-02 -1.157017E-03  1.485020E-02 -2.754048E-13 -1.395169E+00 -1.316065E-12
        20  14 -4.803557E-03  3.083524E-04  9.847012E-03  1.365926E-13 -8.102239E-01  3.464898E-12
        20  15 -1.283639E-02 -2.471917E-03  1.020028E-02 -1.240286E-13 -1.394050E+00 -8.454573E-13
        20  16 -6.144072E+00  1.584427E-01 -1.374075E-02 -1.107289E-14 -1.346630E+00 -6.328336E-13
        20  17 -3.652119E+00 -2.028234E-01  5.198322E-01  1.780109E-13 -7.746875E-01 -2.216200E-12
        20  18 -1.104350E+00 -4.000110E-01  1.130898E+00  1.716891E-13 -1.371543E+00  1.285763E-12
        20  19  6.125563E+00 -1.580481E-01  4.937319E-02  9.520799E-02 -1.634726E+00  9.003244E-02
        20  20  3.649343E+00  2.047383E-01 -4.946967E-01  6.769994E-02 -1.037799E+00 -2.880841E-01
        20  21  1.084714E+00  3.950482E-01 -1.105485E+00  4.004637E-02 -1.609617E+00 -6.962653E-01
        20  22 -1.370878E-02 -2.694474E-04  1.831315E-02  2.875960E-04 -1.616278E+00  9.070144E-02
        20  23 -5.264692E-03  1.251480E-03  1.345796E-02  1.292570E-04 -1.032364E+00 -2.874564E-01
        20  24 -1.323882E-02 -1.455585E-03  1.399263E-02 -1.757928E-04 -1.617222E+00 -6.956651E-01
        20  25 -6.141682E+00  1.605703E-01 -9.038673E-03 -9.480029E-02 -1.567763E+00  9.137140E-02
        20  26 -3.649691E+00 -2.006406E-01  5.246822E-01 -6.762209E-02 -9.968602E-01 -2.868277E-01
        20  27 -1.101863E+00 -3.977552E-01  1.135930E+00 -4.058921E-02 -1.594756E+00 -6.950638E-01
