
KNOT1
tra         1  0.3135E-06  0.2306E-07  0.2214E-07
rot        23  0.2297E-07 -0.1817E-07  0.3866E-05
exp        24 -0.6478E-07

KNOT1
tra         4  0.3135E-06  0.2306E-07 -0.2214E-07
rot        43 -0.2297E-07  0.1817E-07  0.3866E-05
exp        44 -0.6478E-07

KNOT1
tra         8  0.3171E-06  0.1359E-07 -0.1939E-21
rot        66  0.1436E-20  0.4070E-21  0.3859E-05
exp        67 -0.6354E-07

 displacements (vx,vy,vz) for set NALL and time  0.1000000E+01

         1  3.134847E-07  2.306213E-08  2.214162E-08
         2  5.438754E-10 -1.009243E-09  1.907174E-10
         3  5.438754E-10 -1.009243E-09 -1.907174E-10
         4  3.134847E-07  2.306213E-08 -2.214162E-08
         5  1.574056E-07 -9.373458E-07  4.649928E-08
         6  0.000000E+00  0.000000E+00  0.000000E+00
         7  1.574056E-07 -9.373458E-07 -4.649928E-08
         8  3.171403E-07  1.358695E-08 -1.938818E-22
         9  8.916066E-11  4.949590E-12 -2.161648E-12
        10  8.916066E-11  4.949590E-12  2.161648E-12
        11  9.489417E-07  7.619223E-09 -2.777521E-09
        12  9.489417E-07  7.619223E-09  2.777521E-09
        13  0.000000E+00  0.000000E+00  0.000000E+00
        14  0.000000E+00  0.000000E+00  0.000000E+00
        15  0.000000E+00  0.000000E+00  0.000000E+00
        16  0.000000E+00  0.000000E+00  0.000000E+00

 stresses (elem, integ.pnt.,sxx,syy,szz,sxy,sxz,syz) for set EALL and time  0.1000000E+01

         1   1  1.124144E-01  2.378787E-02  2.681334E-02 -1.689383E-03 -4.747949E-03 -7.409587E-04
         1   2  1.010590E-01  2.231916E-03  1.150811E-02  2.720043E-03  1.759706E-03 -5.501792E-05
         1   3  1.016505E-01 -5.187895E-03  2.188396E-02  1.531385E-03  8.267360E-03  6.323009E-04
         1   4  1.131072E-01  2.420407E-02  2.714604E-02 -1.785395E-03 -2.331717E-17  6.721146E-17
         1   5  1.016563E-01  2.425266E-03  1.174531E-02  2.681938E-03 -1.650228E-17  2.705834E-17
         1   6  1.021523E-01 -5.217391E-03  2.202565E-02  1.551186E-03  5.211056E-18 -3.632833E-17
         1   7  1.124144E-01  2.378787E-02  2.681334E-02 -1.689383E-03  4.747949E-03  7.409587E-04
         1   8  1.010590E-01  2.231916E-03  1.150811E-02  2.720043E-03 -1.759706E-03  5.501792E-05
         1   9  1.016505E-01 -5.187895E-03  2.188396E-02  1.531385E-03 -8.267360E-03 -6.323009E-04
         1  10  7.092831E-02  8.392048E-03  9.579160E-03 -1.934898E-03 -4.688596E-03 -8.617804E-04
         1  11  6.498836E-02 -2.439061E-03 -8.249901E-04  8.384136E-04  1.824775E-03 -6.117574E-04
         1  12  7.099529E-02  8.658556E-04  1.445167E-02 -1.986342E-03  8.338143E-03 -3.603566E-04
         1  13  7.161097E-02  8.803901E-03  9.907514E-03 -2.027726E-03  5.478283E-18  9.771901E-17
         1  14  6.557553E-02 -2.250054E-03 -5.921397E-04  8.034922E-04 -1.550010E-17  3.140502E-17
         1  15  7.148695E-02  8.320167E-04  1.458902E-02 -1.963357E-03  1.068811E-18 -2.554288E-17
         1  16  7.092831E-02  8.392048E-03  9.579160E-03 -1.934898E-03  4.688596E-03  8.617804E-04
         1  17  6.498836E-02 -2.439061E-03 -8.249901E-04  8.384136E-04 -1.824775E-03  6.117574E-04
         1  18  7.099529E-02  8.658556E-04  1.445167E-02 -1.986342E-03 -8.338143E-03  3.603566E-04
         1  19  2.972832E-02 -6.875795E-03 -7.514539E-03 -2.327140E-03 -4.607766E-03 -9.826019E-04
         1  20  2.923612E-02 -6.949838E-03 -1.294244E-02 -1.189943E-03  1.911321E-03 -1.168497E-03
         1  21  4.069065E-02  7.112030E-03  7.310211E-03 -5.650797E-03  8.430404E-03 -1.353015E-03
         1  22  3.040085E-02 -6.468285E-03 -7.190528E-03 -2.416785E-03  2.946335E-17  9.540563E-17
         1  23  2.981315E-02 -6.765174E-03 -1.271393E-02 -1.221681E-03 -1.048929E-17  3.881702E-17
         1  24  4.117218E-02  7.073847E-03  7.443212E-03 -5.624628E-03 -5.679119E-18 -4.755254E-17
         1  25  2.972832E-02 -6.875795E-03 -7.514539E-03 -2.327140E-03  4.607766E-03  9.826019E-04
         1  26  2.923612E-02 -6.949838E-03 -1.294244E-02 -1.189943E-03 -1.911321E-03  1.168497E-03
         1  27  4.069065E-02  7.112030E-03  7.310211E-03 -5.650797E-03 -8.430404E-03  1.353015E-03
         2   1  7.108808E-03  2.644564E-02  1.132323E-02  1.687412E-01 -1.100729E-04 -1.539371E-03
         2   2 -1.043526E-02 -1.691310E-02 -7.060595E-03 -4.362732E-02  2.503713E-04  1.953950E-04
         2   3 -4.242622E-02 -6.872527E-02 -3.917793E-02  1.418760E-02  1.509892E-03  1.930160E-03
         2   4  7.271327E-03  2.522253E-02  1.100505E-02  1.688914E-01  2.717656E-18 -3.342773E-17
         2   5 -1.054784E-02 -1.825411E-02 -7.496673E-03 -4.361619E-02  1.490766E-17  1.998725E-18
         2   6 -4.281390E-02 -7.018418E-02 -3.973191E-02  1.405965E-02  1.328207E-17  2.127651E-17
         2   7  7.108808E-03  2.644564E-02  1.132323E-02  1.687412E-01  1.100729E-04  1.539371E-03
         2   8 -1.043526E-02 -1.691310E-02 -7.060595E-03 -4.362732E-02 -2.503713E-04 -1.953950E-04
         2   9 -4.242622E-02 -6.872527E-02 -3.917793E-02  1.418760E-02 -1.509892E-03 -1.930160E-03
         2  10 -6.157473E-03 -5.671920E-04 -7.373646E-04  1.687755E-01 -6.370620E-05 -1.565266E-03
         2  11 -2.529914E-03  3.745536E-03  1.532595E-03 -4.371408E-02  2.791305E-04  2.005464E-04
         2  12 -1.341667E-02 -4.626134E-04 -1.008829E-02  1.397973E-02  1.521043E-03  1.966361E-03
         2  13 -6.005385E-03 -1.814644E-03 -1.065974E-03  1.689217E-01 -2.069056E-17 -1.887986E-17
         2  14 -2.652923E-03  2.380186E-03  1.086087E-03 -4.370688E-02  1.809526E-17 -4.958027E-18
         2  15 -1.381478E-02 -1.945866E-03 -1.065270E-02  1.384786E-02  2.389952E-17  7.797897E-19
         2  16 -6.157473E-03 -5.671920E-04 -7.373646E-04  1.687755E-01  6.370620E-05  1.565266E-03
         2  17 -2.529914E-03  3.745536E-03  1.532595E-03 -4.371408E-02 -2.791305E-04 -2.005464E-04
         2  18 -1.341667E-02 -4.626134E-04 -1.008829E-02  1.397973E-02 -1.521043E-03 -1.966361E-03
         2  19 -1.942327E-02 -2.757666E-02 -1.279971E-02  1.688227E-01 -1.733953E-05 -1.591649E-03
         2  20  5.376648E-03  2.440827E-02  1.012574E-02 -4.378787E-02  3.078897E-04  2.052105E-04
         2  21  1.559482E-02  6.780491E-02  1.900300E-02  1.378483E-02  1.532195E-03  2.002074E-03
         2  22 -1.928161E-02 -2.884844E-02 -1.313875E-02  1.689650E-01  1.743395E-17  1.310840E-17
         2  23  5.243208E-03  2.301858E-02  9.668802E-03 -4.378460E-02  4.373441E-17 -5.684562E-18
         2  24  1.518628E-02  6.629732E-02  1.842817E-02  1.364903E-02  1.841990E-17 -4.226091E-17
         2  25 -1.942327E-02 -2.757666E-02 -1.279971E-02  1.688227E-01  1.733953E-05  1.591649E-03
         2  26  5.376648E-03  2.440827E-02  1.012574E-02 -4.378787E-02 -3.078897E-04 -2.052105E-04
         2  27  1.559482E-02  6.780491E-02  1.900300E-02  1.378483E-02 -1.532195E-03 -2.002074E-03
