
 displacements (vx,vy,vz) for set NALL and time  0.1000000E+01

         1  7.537047E-08  1.150517E-07  2.414892E-06
         2  1.045330E-04  1.428237E-06 -1.800408E-02
         3  1.040153E-04  1.228755E-12 -1.802437E-02
         4  1.110841E-07  3.651846E-14  2.390611E-06
         5  6.397270E-05  2.499915E-06 -5.081331E-03
         6  1.042573E-04  7.258993E-07 -1.802545E-02
         7  6.415396E-05 -1.954465E-12 -5.119997E-03
         8  0.000000E+00  0.000000E+00  0.000000E+00
         9  1.045330E-04 -1.428234E-06 -1.800408E-02
        10  7.537035E-08 -1.150519E-07  2.414892E-06
        11  1.042573E-04 -7.258969E-07 -1.802545E-02
        12  6.397270E-05 -2.499918E-06 -5.081331E-03
        13  0.000000E+00  0.000000E+00  0.000000E+00
        14  1.236600E-04 -1.659891E-06 -5.362819E-02
        15  1.226832E-04  3.170007E-12 -5.360271E-02
        16  1.210308E-04  1.275090E-06 -3.509499E-02
        17  1.232636E-04 -8.404018E-07 -5.361163E-02
        18  1.212514E-04  3.101850E-12 -3.511422E-02
        19  1.236600E-04  1.659896E-06 -5.362819E-02
        20  1.232636E-04  8.404080E-07 -5.361163E-02
        21  1.210308E-04 -1.275084E-06 -3.509499E-02

 forces (fx,fy,fz) for set NALL and time  0.1000000E+01

         1  1.780782E-04  7.593540E-04 -8.800968E-02
         2 -1.314491E-14 -6.694722E-13  2.083333E-04
         3  1.585331E-14 -8.412173E-13  4.166667E-04
         4 -3.828257E-05  1.689755E-10 -1.663072E-01
         5  1.426561E-14  2.528132E-14  4.389909E-13
         6  8.118018E-15  3.053916E-13 -8.333335E-04
         7  3.558872E-14  4.513929E-14 -1.478610E-12
         8 -1.589369E-04 -1.366139E-03  1.736633E-01
         9  5.808846E-14 -1.008802E-12  2.083333E-04
        10  1.780784E-04 -7.593539E-04 -8.800968E-02
        11 -4.426526E-14  8.890488E-13 -8.333333E-04
        12  5.443953E-14  2.805883E-14 -5.411127E-13
        13 -1.589371E-04  1.366139E-03  1.736633E-01
        14 -8.228582E-14  2.717801E-13  2.083333E-04
        15  1.816062E-13 -7.275118E-13  4.166667E-04
        16  7.928602E-14 -3.896648E-13 -8.333335E-04
        17 -5.201872E-14 -4.303270E-13 -8.333335E-04
        18 -6.886115E-14  5.477800E-13 -1.666667E-03
        19 -7.743632E-14 -2.506454E-13  2.083333E-04
        20  4.296737E-14  2.521287E-12 -8.333333E-04
        21  1.254955E-13  5.313918E-13 -8.333333E-04

 stresses (elem, integ.pnt.,sxx,syy,szz,sxy,sxz,syz) for set EALL and time  0.1000000E+01

         1   1 -4.363490E+02 -8.101086E+01  1.132823E+00 -7.906195E+00  5.265013E-01  1.818857E+01
         1   2 -2.431319E+02 -7.976021E-01 -4.057466E+00  4.323731E+00 -2.879958E+00  1.550818E+00
         1   3 -4.377450E+02 -8.177432E+01  6.128066E-01 -3.856133E+00 -2.891912E+00 -1.393364E+01
         1   4 -2.394915E+02  1.322630E-01 -2.250987E+00  1.898797E+00 -1.261044E+00 -2.757809E+00
         1   5 -3.172708E+01 -6.489422E+00 -6.175468E-01 -6.093987E-01 -1.117265E+00  2.502842E+01
         1   6 -1.744844E+01 -3.746765E-03 -1.723595E-01  3.238685E-01 -4.866260E+00  1.461506E+00
         1   7 -3.148666E+01 -6.160111E+00  2.899489E-01 -2.412953E-01 -5.818034E+00 -2.303655E+01
         1   8 -1.726827E+01 -1.427384E-02 -2.002509E-01  8.404274E-02 -2.196509E+00 -2.540416E+00
         1   9  1.323884E+02  2.433994E+01 -8.120797E-01  2.354099E+00 -9.617238E-01  1.503261E+01
         1  10  7.389822E+01  2.852763E-01  1.339814E+00 -1.280230E+00 -2.961598E+00  6.855247E-01
         1  11  1.331194E+02  2.490966E+01  1.692593E-01  1.181565E+00 -3.784221E+00 -1.483533E+01
         1  12  7.273365E+01 -5.910940E-02  6.595276E-01 -6.092331E-01 -1.244827E+00 -1.203174E+00
         1  13  3.351092E+02  6.244187E+01 -1.311953E+00  5.969672E+00 -1.241107E+00  1.849309E+01
         1  14  1.867852E+02  6.728562E-01  3.293150E+00 -3.220366E+00 -3.412249E+00  6.066147E-01
         1  15  3.366908E+02  6.357188E+01  3.970355E-01  2.931857E+00 -4.712263E+00 -1.934623E+01
         1  16  1.839230E+02 -1.278324E-01  1.709571E+00 -1.481116E+00 -1.177540E+00 -1.128732E+00
         2   1 -4.377450E+02 -8.177431E+01  6.128088E-01  3.856156E+00 -2.891908E+00  1.393364E+01
         2   2 -2.394915E+02  1.322631E-01 -2.250989E+00 -1.898826E+00 -1.261041E+00  2.757811E+00
         2   3 -4.363490E+02 -8.101083E+01  1.132828E+00  7.906221E+00  5.265087E-01 -1.818858E+01
         2   4 -2.431319E+02 -7.976113E-01 -4.057478E+00 -4.323756E+00 -2.879967E+00 -1.550819E+00
         2   5 -3.148666E+01 -6.160111E+00  2.899485E-01  2.412968E-01 -5.818029E+00  2.303655E+01
         2   6 -1.726827E+01 -1.427381E-02 -2.002510E-01 -8.404467E-02 -2.196506E+00  2.540418E+00
         2   7 -3.172707E+01 -6.489421E+00 -6.175470E-01  6.094005E-01 -1.117255E+00 -2.502843E+01
         2   8 -1.744845E+01 -3.747340E-03 -1.723602E-01 -3.238702E-01 -4.866272E+00 -1.461507E+00
         2   9  1.331194E+02  2.490966E+01  1.692583E-01 -1.181572E+00 -3.784218E+00  1.483533E+01
         2  10  7.273365E+01 -5.910943E-02  6.595283E-01  6.092419E-01 -1.244826E+00  1.203175E+00
         2  11  1.323884E+02  2.433993E+01 -8.120811E-01 -2.354107E+00 -9.617175E-01 -1.503262E+01
         2  12  7.389823E+01  2.852791E-01  1.339818E+00  1.280238E+00 -2.961605E+00 -6.855254E-01
         2  13  3.366908E+02  6.357188E+01  3.970338E-01 -2.931874E+00 -4.712260E+00  1.934623E+01
         2  14  1.839230E+02 -1.278325E-01  1.709572E+00  1.481138E+00 -1.177539E+00  1.128733E+00
         2  15  3.351092E+02  6.244186E+01 -1.311956E+00 -5.969691E+00 -1.241099E+00 -1.849310E+01
         2  16  1.867852E+02  6.728632E-01  3.293159E+00  3.220384E+00 -3.412257E+00 -6.066154E-01
         3   1 -1.034359E+02  2.361817E+01  4.173171E+00 -1.009116E+00 -2.454494E+00 -6.833260E+00
         3   2 -1.003283E+01 -5.998688E+00 -1.011255E+00  6.993452E+00 -2.054483E+00  1.808419E+00
         3   3 -1.076659E+02  2.113800E+01  2.367692E+00  4.245462E-01 -2.500471E+00  7.081524E+00
         3   4 -5.077239E+00 -4.420407E+00 -5.082621E-01  6.613948E+00  1.418242E+00 -1.920037E+00
         3   5 -7.376018E+00  1.828412E+00  4.451010E-01 -1.365355E-01 -2.394184E+00 -8.636431E+00
         3   6 -7.100546E-01 -4.862457E-01 -5.343503E-02  4.943994E-01 -3.084592E+00  2.195547E+00
         3   7 -7.689147E+00  1.611852E+00  1.937827E-01  2.779019E-02 -3.008771E+00  9.550204E+00
         3   8 -4.300222E-01 -3.620589E-01  1.888632E-02  4.445106E-01  1.564364E+00 -2.677547E+00
         3   9  3.144170E+01 -7.143211E+00 -1.175761E+00  2.676559E-01 -1.120114E+00 -4.985536E+00
         3  10  3.076708E+00  1.809487E+00  3.401522E-01 -2.117955E+00 -1.864439E+00  1.273810E+00
         3  11  3.271780E+01 -6.423385E+00 -7.329894E-01 -1.114555E-01 -1.631368E+00  5.671387E+00
         3  12  1.504344E+00  1.338914E+00  2.182451E-01 -2.018917E+00  8.947348E-01 -1.581704E+00
         3  13  7.938788E+01 -1.826161E+01 -3.131986E+00  7.491261E-01 -9.399607E-01 -5.907105E+00
         3  14  7.790995E+00  4.661101E+00  8.635489E-01 -5.330152E+00 -2.229495E+00  1.561186E+00
         3  15  8.261966E+01 -1.641116E+01 -1.913311E+00 -2.555416E-01 -1.724141E+00  6.885743E+00
         3  16  3.878102E+00  3.462303E+00  5.251285E-01 -5.057195E+00  1.129174E+00 -1.866647E+00
         4   1 -1.076659E+02  2.113800E+01  2.367694E+00 -4.245617E-01 -2.500469E+00 -7.081526E+00
         4   2 -5.077243E+00 -4.420406E+00 -5.082625E-01 -6.613939E+00  1.418240E+00  1.920037E+00
         4   3 -1.034359E+02  2.361817E+01  4.173182E+00  1.009106E+00 -2.454496E+00  6.833262E+00
         4   4 -1.003285E+01 -5.998689E+00 -1.011258E+00 -6.993444E+00 -2.054481E+00 -1.808419E+00
         4   5 -7.689147E+00  1.611852E+00  1.937830E-01 -2.779126E-02 -3.008769E+00 -9.550205E+00
         4   6 -4.300225E-01 -3.620589E-01  1.888623E-02 -4.445100E-01  1.564362E+00  2.677548E+00
         4   7 -7.376016E+00  1.828412E+00  4.451019E-01  1.365349E-01 -2.394186E+00  8.636433E+00
         4   8 -7.100560E-01 -4.862459E-01 -5.343532E-02 -4.943990E-01 -3.084590E+00 -2.195547E+00
         4   9  3.271779E+01 -6.423384E+00 -7.329899E-01  1.114602E-01 -1.631367E+00 -5.671387E+00
         4  10  1.504345E+00  1.338914E+00  2.182452E-01  2.018914E+00  8.947336E-01  1.581704E+00
         4  11  3.144169E+01 -7.143212E+00 -1.175765E+00 -2.676528E-01 -1.120115E+00  4.985537E+00
         4  12  3.076714E+00  1.809487E+00  3.401531E-01  2.117953E+00 -1.864438E+00 -1.273810E+00
         4  13  8.261965E+01 -1.641115E+01 -1.913313E+00  2.555533E-01 -1.724139E+00 -6.885743E+00
         4  14  3.878105E+00  3.462302E+00  5.251288E-01  5.057188E+00  1.129172E+00  1.866647E+00
         4  15  7.938786E+01 -1.826161E+01 -3.131995E+00 -7.491186E-01 -9.399612E-01  5.907106E+00
         4  16  7.791009E+00  4.661101E+00  8.635514E-01  5.330146E+00 -2.229495E+00 -1.561187E+00
