
KNOT1
tra         1 -0.5485E-11 -0.2883E-02  0.2169E-04
rot        20  0.6525E-02 -0.1319E-09  0.2433E-09
exp        21  0.4250E-03

KNOT1
tra         4 -0.5485E-11 -0.2883E-02 -0.2169E-04
rot        40 -0.6525E-02  0.1319E-09  0.2433E-09
exp        41  0.4250E-03

KNOT1
tra         8 -0.5407E-11 -0.4156E-02 -0.1058E-17
rot        63 -0.1671E-15 -0.3885E-15  0.1306E-09
exp        64  0.3564E-03

 displacements (vx,vy,vz) for set NALL and time  0.1000000E+01

         1 -5.484948E-12 -2.882830E-03  2.169117E-05
         2 -3.038932E-07  5.135883E-07 -4.362928E-05
         3 -3.038932E-07  5.135883E-07  4.362928E-05
         4 -5.484947E-12 -2.882830E-03 -2.169117E-05
         5 -4.947521E-06 -1.442339E-03 -1.448982E-05
         6 -2.710505E-20  0.000000E+00  0.000000E+00
         7 -4.947521E-06 -1.442339E-03  1.448982E-05
         8 -5.407247E-12 -4.155722E-03 -1.058120E-18
         9  3.038932E-07  5.135883E-07 -4.362928E-05
        10  3.038932E-07  5.135883E-07  4.362928E-05
        11  4.947517E-06 -1.442339E-03 -1.448982E-05
        12  4.947517E-06 -1.442339E-03  1.448982E-05
        13 -4.065758E-20  0.000000E+00  0.000000E+00

 stresses (elem, integ.pnt.,sxx,syy,szz,sxy,sxz,syz) for set EALL and time  0.1000000E+01

         1   1 -8.934131E-01  3.592708E+00  4.596573E+00 -9.058699E-01 -1.514646E+00 -4.368558E-01
         1   2 -1.182597E+01 -1.198116E+00 -1.839606E-01 -1.544359E+00 -9.269830E-01  1.903074E-02
         1   3 -8.934131E-01  3.592708E+00  4.596573E+00 -9.058699E-01  1.514646E+00  4.368558E-01
         1   4 -1.182597E+01 -1.198116E+00 -1.839606E-01 -1.544359E+00  9.269830E-01 -1.903074E-02
         1   5 -1.405748E+01 -3.860179E+00 -6.269271E+00 -1.077260E+00 -9.698492E-02 -3.126179E-01
         1   6 -3.121620E+00  9.733147E-01  1.851490E+00 -4.425610E-01 -7.648960E-01  3.780321E-02
         1   7 -1.405748E+01 -3.860179E+00 -6.269271E+00 -1.077260E+00  9.698492E-02  3.126179E-01
         1   8 -3.121620E+00  9.733147E-01  1.851490E+00 -4.425610E-01  7.648960E-01 -3.780321E-02
         2   1 -1.182597E+01 -1.198116E+00 -1.839607E-01  1.544359E+00  9.269830E-01  1.903073E-02
         2   2 -8.934134E-01  3.592708E+00  4.596573E+00  9.058699E-01  1.514646E+00 -4.368557E-01
         2   3 -1.182597E+01 -1.198116E+00 -1.839607E-01  1.544359E+00 -9.269830E-01 -1.903073E-02
         2   4 -8.934134E-01  3.592708E+00  4.596573E+00  9.058699E-01 -1.514646E+00  4.368557E-01
         2   5 -3.121620E+00  9.733147E-01  1.851490E+00  4.425610E-01  7.648960E-01  3.780321E-02
         2   6 -1.405748E+01 -3.860178E+00 -6.269271E+00  1.077260E+00  9.698493E-02 -3.126179E-01
         2   7 -3.121620E+00  9.733147E-01  1.851490E+00  4.425610E-01 -7.648960E-01 -3.780321E-02
         2   8 -1.405748E+01 -3.860178E+00 -6.269271E+00  1.077260E+00 -9.698493E-02  3.126179E-01
