
 displacements (vx,vy,vz) for set NALL and time  0.1000000E+01

         1 -6.450179E-08 -1.140692E-07  1.131488E-06
         2  4.334009E-04 -5.467041E-04 -1.541591E-02
         3  6.178677E-04  2.771949E-12 -1.327124E-02
         4  1.053211E-07  1.205702E-16  9.060530E-07
         5  2.659723E-04 -4.218272E-04 -6.189732E-03
         6  6.035008E-04 -2.554521E-04 -1.379939E-02
         7  4.134986E-04  2.710430E-12 -5.186303E-03
         8  0.000000E+00  0.000000E+00  0.000000E+00
         9  4.334009E-04  5.467041E-04 -1.541591E-02
        10 -6.450180E-08  1.140692E-07  1.131488E-06
        11  6.035008E-04  2.554521E-04 -1.379939E-02
        12  2.659723E-04  4.218272E-04 -6.189732E-03
        13  0.000000E+00  0.000000E+00  0.000000E+00
        14  7.814176E-04 -6.166223E-04 -3.386203E-02
        15  1.290301E-03  1.048780E-12 -2.929555E-02
        16  6.430863E-04 -5.726751E-04 -2.453630E-02
        17  9.446399E-04 -3.248060E-04 -3.083613E-02
        18  9.136378E-04  2.193346E-12 -2.146518E-02
        19  7.814176E-04  6.166223E-04 -3.386203E-02
        20  9.446399E-04  3.248060E-04 -3.083613E-02
        21  6.430863E-04  5.726751E-04 -2.453630E-02

 temperatures for set NALL and time  0.1000000E+01

         1  3.730000E+02
         2  3.730000E+02
         3  3.730000E+02
         4  3.730000E+02
         5  3.730000E+02
         6  3.730000E+02
         7  3.730000E+02
         8  3.730000E+02
         9  3.730000E+02
        10  3.730000E+02
        11  3.730000E+02
        12  3.730000E+02
        13  3.730000E+02
        14  3.730000E+02
        15  3.730000E+02
        16  3.730000E+02
        17  3.730000E+02
        18  3.730000E+02
        19  3.730000E+02
        20  3.730000E+02
        21  3.730000E+02

 forces (fx,fy,fz) for set NALL and time  0.1000000E+01

         1  2.024439E-01  4.631060E-01  2.149405E-03
         2  4.938458E-05 -1.232524E-05  2.087631E-03
         3  1.025510E-04 -7.146954E-13  4.175620E-03
         4 -3.129609E-01 -1.645202E-09  5.165815E-03
         5 -6.577878E-07 -2.717716E-07 -1.633936E-07
         6 -2.031223E-04  4.639858E-05 -8.350332E-03
         7 -1.174782E-06  1.478520E-13 -2.933128E-07
         8 -5.453586E-01  1.289016E-01  2.032841E-02
         9  4.938458E-05  1.232524E-05  2.087631E-03
        10  2.024439E-01 -4.631060E-01  2.149405E-03
        11 -2.031223E-04 -4.639857E-05 -8.350331E-03
        12 -6.577876E-07  2.717714E-07 -1.633936E-07
        13 -5.453586E-01 -1.289016E-01  2.032841E-02
        14  4.857519E-05 -7.721487E-06  2.087993E-03
        15  1.000106E+00  8.499815E-15  4.174473E-03
        16 -2.082852E-04  6.662958E-05 -8.349925E-03
        17 -1.997595E-04  5.983041E-05 -8.350507E-03
        18 -3.896369E-04  2.058855E-12 -1.670192E-02
        19  4.857519E-05  7.721488E-06  2.087993E-03
        20 -1.997595E-04 -5.983040E-05 -8.350506E-03
        21 -2.082852E-04 -6.662958E-05 -8.349925E-03

 stresses (elem, integ.pnt.,sxx,syy,szz,sxy,sxz,syz) for set EALL and time  0.1000000E+01

         1   1 -7.638330E+01 -1.738754E+02 -7.873754E-01 -8.888410E+01 -2.164474E+00 -1.061993E+00
         1   2  6.331820E+01  2.621367E+00  3.186785E+00  2.464784E+01 -1.899443E+00 -5.216047E-01
         1   3  4.529293E+00 -1.562350E+02 -8.168767E-01 -1.858424E+01  1.305542E+00 -3.410439E+00
         1   4  4.015566E+01 -3.089005E+01  2.681446E+00  7.836644E+00 -5.144188E+00  2.020896E+00
         1   5  1.470477E+02 -1.197397E+02  9.784195E-01 -1.019552E+02 -4.534460E+00  3.835295E+00
         1   6  2.986049E+01  4.456427E-01 -2.937896E+00  1.182019E+00 -3.750821E+00 -3.781465E-01
         1   7  2.049315E+02 -1.111678E+02  5.209660E-01 -2.705831E+01 -8.675560E+00  1.361518E+00
         1   8  2.117673E+01 -3.582993E+01 -1.616938E+00 -1.162469E+01  3.074259E+00  2.398883E+00
         2   1  4.529293E+00 -1.562350E+02 -8.168767E-01  1.858425E+01  1.305541E+00  3.410439E+00
         2   2  4.015566E+01 -3.089005E+01  2.681445E+00 -7.836644E+00 -5.144188E+00 -2.020896E+00
         2   3 -7.638329E+01 -1.738754E+02 -7.873754E-01  8.888410E+01 -2.164474E+00  1.061993E+00
         2   4  6.331821E+01  2.621367E+00  3.186785E+00 -2.464784E+01 -1.899443E+00  5.216047E-01
         2   5  2.049315E+02 -1.111678E+02  5.209662E-01  2.705831E+01 -8.675561E+00 -1.361518E+00
         2   6  2.117673E+01 -3.582993E+01 -1.616938E+00  1.162469E+01  3.074259E+00 -2.398883E+00
         2   7  1.470477E+02 -1.197397E+02  9.784194E-01  1.019552E+02 -4.534459E+00 -3.835295E+00
         2   8  2.986049E+01  4.456444E-01 -2.937896E+00 -1.182020E+00 -3.750821E+00  3.781465E-01
         3   1  4.754486E+01  3.594636E+00 -2.776087E+00  2.502648E+01 -3.267959E+00 -1.595544E-01
         3   2  5.456483E+00  9.555432E+00  8.685837E-01  8.427195E+00 -1.733857E+00 -3.392991E-02
         3   3  6.231646E+01 -2.519022E+01 -2.511821E+00  1.627848E+01 -1.478797E+00 -2.349116E+00
         3   4  1.168627E+02  1.109629E+01  7.221734E-01  7.734648E+01  6.563369E+00  7.046749E-01
         3   5  8.961768E+00  9.392814E+00  3.143732E+00  8.239285E+00  2.130836E-01 -5.693839E-01
         3   6 -2.270956E+01 -1.064274E+01 -9.737315E-01 -1.753811E+01  2.678391E+00  8.666454E-01
         3   7  2.407744E+01 -6.002887E+00  1.388823E+00 -5.145958E+00 -1.150891E+00 -2.965136E+00
         3   8  8.099912E+01  6.754071E+01  1.394955E-01  5.305799E+01 -9.389752E+00  1.676542E+00
         4   1  6.231646E+01 -2.519022E+01 -2.511821E+00 -1.627848E+01 -1.478797E+00  2.349116E+00
         4   2  1.168627E+02  1.109629E+01  7.221733E-01 -7.734648E+01  6.563368E+00 -7.046749E-01
         4   3  4.754486E+01  3.594634E+00 -2.776087E+00 -2.502648E+01 -3.267959E+00  1.595543E-01
         4   4  5.456482E+00  9.555432E+00  8.685837E-01 -8.427194E+00 -1.733857E+00  3.392993E-02
         4   5  2.407744E+01 -6.002886E+00  1.388823E+00  5.145957E+00 -1.150891E+00  2.965136E+00
         4   6  8.099912E+01  6.754071E+01  1.394955E-01 -5.305799E+01 -9.389752E+00 -1.676542E+00
         4   7  8.961769E+00  9.392814E+00  3.143732E+00 -8.239286E+00  2.130835E-01  5.693839E-01
         4   8 -2.270956E+01 -1.064274E+01 -9.737315E-01  1.753811E+01  2.678391E+00 -8.666454E-01
