
 displacements (vx,vy,vz) for set NALL and time  0.1000000E+01

         1  6.490812E-08  3.661201E-08  5.722463E-06
         2  8.471371E-05  2.446818E-05 -7.066611E-02
         3  1.340508E-04 -2.091760E-12 -7.175556E-02
         4  9.197108E-08  2.210857E-16  5.865799E-06
         5  6.369908E-05  4.129610E-05 -2.719800E-02
         6  1.371113E-04  2.495569E-05 -7.157018E-02
         7  7.358570E-05 -7.077758E-13 -2.782137E-02
         8  0.000000E+00  0.000000E+00  0.000000E+00
         9  8.471371E-05 -2.446818E-05 -7.066611E-02
        10  6.490812E-08 -3.661201E-08  5.722463E-06
        11  1.371113E-04 -2.495569E-05 -7.157018E-02
        12  6.369909E-05 -4.129610E-05 -2.719800E-02
        13  0.000000E+00  0.000000E+00  0.000000E+00
        14  1.216040E-04 -2.935943E-05 -1.638763E-01
        15  4.551907E-04 -4.932847E-12 -1.646125E-01
        16  1.334504E-04  2.511141E-05 -1.168127E-01
        17  1.860712E-04 -1.627138E-05 -1.643435E-01
        18  2.594280E-04 -3.386888E-12 -1.178255E-01
        19  1.216040E-04  2.935942E-05 -1.638763E-01
        20  1.860712E-04  1.627137E-05 -1.643435E-01
        21  1.334504E-04 -2.511142E-05 -1.168127E-01

 temperatures for set NALL and time  0.1000000E+01

         1  2.730000E+02
         2  2.730000E+02
         3  2.730000E+02
         4  2.730000E+02
         5  2.730000E+02
         6  2.730000E+02
         7  2.730000E+02
         8  2.730000E+02
         9  2.730000E+02
        10  2.730000E+02
        11  2.730000E+02
        12  2.730000E+02
        13  2.730000E+02
        14  2.730000E+02
        15  2.730000E+02
        16  2.730000E+02
        17  2.730000E+02
        18  2.730000E+02
        19  2.730000E+02
        20  2.730000E+02
        21  2.730000E+02

 forces (fx,fy,fz) for set NALL and time  0.1000000E+01

         1 -1.261264E-01 -6.886188E-02 -1.768005E-02
         2 -2.083334E-05 -8.441457E-13  2.083333E-03
         3 -4.166667E-05  1.803927E-12  4.166667E-03
         4 -2.032348E-01  6.834912E-10 -3.903298E-02
         5  1.094021E-13 -1.073799E-12 -2.516318E-11
         6  8.333333E-05  2.310425E-12 -8.333333E-03
         7 -1.287359E-12 -1.278803E-12 -2.640282E-11
         8 -2.725062E-01  5.630727E-03  6.219655E-02
         9 -2.083333E-05  6.139711E-13  2.083333E-03
        10 -1.261264E-01  6.886188E-02 -1.768005E-02
        11  8.333333E-05 -1.991486E-12 -8.333333E-03
        12  7.641873E-13 -4.642033E-13 -5.540290E-12
        13 -2.725062E-01 -5.630728E-03  6.219655E-02
        14 -2.083333E-05  1.981797E-13  2.083333E-03
        15  9.999583E-01 -3.408392E-13  4.166667E-03
        16  8.333333E-05  1.392024E-12 -8.333333E-03
        17  8.333333E-05  4.143824E-12 -8.333333E-03
        18  1.666667E-04 -1.063933E-12 -1.666667E-02
        19 -2.083333E-05  1.956795E-12  2.083333E-03
        20  8.333333E-05 -2.479159E-12 -8.333333E-03
        21  8.333333E-05  8.521272E-13 -8.333333E-03

 stresses (elem, integ.pnt.,sxx,syy,szz,sxy,sxz,syz) for set EALL and time  0.1000000E+01

         1   1 -5.334499E+02 -1.646147E+02 -2.490274E+00  1.094290E+01 -2.755097E+00  6.742580E+00
         1   2 -4.875288E+01  3.055917E-01  9.011264E+00  3.011260E+00 -7.461421E-01 -3.111636E-01
         1   3 -5.382955E+02 -1.738025E+02 -2.599590E+00  1.409121E-01 -2.234845E+00 -7.841947E+00
         1   4 -2.556826E+01 -2.120897E+01  9.916428E+00 -7.178084E+00 -6.768313E+00  7.756655E-01
         1   5  6.720056E+02  1.907382E+02  2.431593E+00  1.959593E+01 -3.672871E+00  6.259797E+00
         1   6  1.103215E+02  5.113360E+00 -9.055961E+00  1.440284E+01 -2.500598E+00 -1.833697E-01
         1   7  6.810458E+02  1.907689E+02  2.560882E+00  4.624785E+00 -5.395462E+00 -8.297730E+00
         1   8  1.192753E+02 -2.409754E+00 -9.246762E+00  9.963532E-02  2.255146E+00  8.478401E-01
         2   1 -5.382955E+02 -1.738025E+02 -2.599590E+00 -1.409121E-01 -2.234844E+00  7.841947E+00
         2   2 -2.556826E+01 -2.120897E+01  9.916429E+00  7.178084E+00 -6.768313E+00 -7.756655E-01
         2   3 -5.334499E+02 -1.646147E+02 -2.490274E+00 -1.094290E+01 -2.755097E+00 -6.742580E+00
         2   4 -4.875288E+01  3.055920E-01  9.011263E+00 -3.011260E+00 -7.461421E-01  3.111637E-01
         2   5  6.810458E+02  1.907689E+02  2.560882E+00 -4.624786E+00 -5.395461E+00  8.297730E+00
         2   6  1.192753E+02 -2.409755E+00 -9.246762E+00 -9.963601E-02  2.255146E+00 -8.478402E-01
         2   7  6.720056E+02  1.907382E+02  2.431593E+00 -1.959593E+01 -3.672871E+00 -6.259797E+00
         2   8  1.103215E+02  5.113360E+00 -9.055961E+00 -1.440284E+01 -2.500598E+00  1.833697E-01
         3   1 -1.537447E+01  8.343447E+00 -8.809425E+00  1.264297E+01 -2.482944E+00 -4.731616E-01
         3   2 -1.812756E+01 -1.682605E+00  2.388966E+00 -5.294207E+00 -2.562515E+00  9.904418E-02
         3   3  1.932461E+01 -6.460308E+00 -1.006594E+01  9.223450E+00  2.701575E-01  5.925121E-01
         3   4  9.841484E+01  4.033908E+01  3.011180E+00  6.207053E+01  7.930883E+00 -2.610550E-01
         3   5  5.766789E+01 -3.184261E+00  9.132623E+00  8.326704E+00 -5.812728E-01 -3.539049E-01
         3   6 -6.059936E+00 -3.170024E+00 -2.479710E+00 -8.879873E+00  1.290071E+00 -4.450021E-02
         3   7  8.187581E+01 -8.702293E+00  8.965479E+00  9.617380E+00 -2.862212E+00  7.631734E-01
         3   8  1.066788E+02  1.840700E+01 -2.153781E+00  5.689325E+01 -8.569735E+00 -4.219693E-01
         4   1  1.932461E+01 -6.460308E+00 -1.006594E+01 -9.223450E+00  2.701574E-01 -5.925121E-01
         4   2  9.841484E+01  4.033908E+01  3.011180E+00 -6.207052E+01  7.930883E+00  2.610550E-01
         4   3 -1.537446E+01  8.343448E+00 -8.809425E+00 -1.264297E+01 -2.482944E+00  4.731617E-01
         4   4 -1.812756E+01 -1.682605E+00  2.388966E+00  5.294207E+00 -2.562515E+00 -9.904419E-02
         4   5  8.187581E+01 -8.702293E+00  8.965479E+00 -9.617380E+00 -2.862212E+00 -7.631734E-01
         4   6  1.066788E+02  1.840700E+01 -2.153780E+00 -5.689325E+01 -8.569735E+00  4.219693E-01
         4   7  5.766790E+01 -3.184261E+00  9.132623E+00 -8.326704E+00 -5.812728E-01  3.539049E-01
         4   8 -6.059936E+00 -3.170023E+00 -2.479710E+00  8.879873E+00  1.290071E+00  4.450020E-02
