
KNOT1
tra         1  0.2265E-06  0.1508E-08 -0.1887E-07
rot        30 -0.2968E-07  0.1717E-06  0.3920E-05
exp        31  0.2886E-08

KNOT1
tra         4  0.3267E-06  0.3598E-07 -0.4862E-07
rot        58 -0.4031E-07  0.2802E-07  0.3861E-05
exp        59 -0.7075E-07

KNOT1
tra         8  0.3030E-06  0.1371E-07 -0.3088E-07
rot        81 -0.3462E-07  0.9965E-07  0.3877E-05
exp        82 -0.6610E-07

 displacements (vx,vy,vz) for set NALL and time  0.1000000E+01

         1  2.264588E-07  1.507520E-09 -1.886931E-08
         2  4.468433E-10 -1.025090E-09  1.713737E-10
         3  5.664536E-10 -1.001525E-09 -1.771235E-10
         4  3.266713E-07  3.598229E-08 -4.862180E-08
         5  1.187118E-07 -9.647300E-07  4.145073E-08
         6  0.000000E+00  0.000000E+00  0.000000E+00
         7  1.606304E-07 -9.249362E-07 -5.017300E-08
         8  3.030093E-07  1.370710E-08 -3.088492E-08
         9  1.124776E-10 -2.360825E-11 -9.503613E-12
        10  9.190695E-11  3.240677E-11 -2.612548E-12
        11  9.115050E-07 -3.325970E-09 -1.515623E-08
        12  9.545177E-07  1.641978E-08 -9.978691E-09
        13  0.000000E+00  0.000000E+00  0.000000E+00
        14 -5.034241E-19  1.975464E-06 -1.052738E-07
        15  1.189759E-07  1.477723E-06 -8.345658E-08

 stresses (elem, integ.pnt.,sxx,syy,szz,sxy,sxz,syz) for set EALL and time  0.1000000E+01

         1   1 -8.977410E-02 -2.704189E-02 -2.457305E-02  4.558602E-04 -1.435864E-04  5.469894E-04
         1   2 -7.600354E-02  1.979800E-03  6.267935E-03  2.272390E-03  2.126217E-03  9.589692E-04
         1   3 -8.290989E-02  1.701729E-03 -2.516010E-03  5.827112E-03  4.322383E-03 -9.028898E-04
         1   4 -5.071928E-02 -1.360764E-02 -1.343844E-02  5.359841E-04 -6.077149E-08  5.699696E-04
         1   5 -4.408771E-02  3.638171E-03  3.875353E-03 -2.428193E-04  1.342766E-03  9.935995E-04
         1   6 -5.098583E-02 -1.268541E-03 -1.758878E-03  7.165618E-04  2.658024E-03 -9.608950E-04
         1   7 -1.240058E-02 -4.766874E-04 -2.578703E-03  4.016451E-04  1.214393E-04  5.926298E-04
         1   8 -1.283474E-02  5.066502E-03  1.378848E-03 -2.972493E-03  5.020065E-04  1.026810E-03
         1   9 -1.965135E-02 -4.395582E-03 -9.347183E-04 -4.608452E-03  9.010752E-04 -1.021419E-03
         1  10 -9.048048E-02 -2.725467E-02 -2.481391E-02  3.251362E-04 -7.137772E-05 -2.602534E-05
         1  11 -7.656256E-02  2.043151E-03  6.274049E-03  1.968841E-03 -3.478024E-05 -4.537241E-05
         1  12 -8.339977E-02  1.858707E-03 -2.341145E-03  5.373771E-03 -7.182537E-05  4.385964E-05
         1  13 -5.149310E-02 -1.384962E-02 -1.370781E-02  4.087767E-04 -1.338299E-06 -8.176061E-07
         1  14 -4.470601E-02  3.674781E-03  3.857752E-03 -5.657078E-04  2.225004E-05 -8.556020E-07
         1  15 -5.152681E-02 -1.135842E-03 -1.602923E-03  2.210269E-04  1.826484E-05  3.399098E-06
         1  16 -1.324802E-02 -7.505199E-04 -2.879246E-03  2.778993E-04  4.911758E-05  2.407010E-05
         1  17 -1.351848E-02  5.073725E-03  1.334884E-03 -3.314775E-03  2.441483E-05  4.224138E-05
         1  18 -2.024962E-02 -4.289807E-03 -8.003185E-04 -5.146236E-03  1.820766E-05 -3.958100E-05
         1  19 -9.149844E-02 -2.760795E-02 -2.519038E-02  3.472718E-04  3.137134E-06 -5.989496E-04
         1  20 -7.744574E-02  1.936665E-03  6.131968E-03  2.156014E-03 -2.193472E-03 -1.049313E-03
         1  21 -8.422638E-02  1.816511E-03 -2.327047E-03  5.749016E-03 -4.463728E-03  9.913213E-04
         1  22 -5.246024E-02 -1.418142E-02 -1.406213E-02  4.335908E-04 -2.785606E-07 -5.715143E-04
         1  23 -4.553020E-02  3.592232E-03  3.742634E-03 -3.987113E-04 -1.295929E-03 -9.949093E-04
         1  24 -5.228627E-02 -1.151637E-03 -1.557056E-03  5.532402E-04 -2.619158E-03  9.684054E-04
         1  25 -1.417052E-02 -1.063494E-03 -3.214053E-03  3.053370E-04 -2.083576E-05 -5.443991E-04
         1  26 -1.428986E-02  5.012468E-03  1.244083E-03 -3.168010E-03 -4.508085E-04 -9.419258E-04
         1  27 -2.094809E-02 -4.281847E-03 -7.253282E-04 -4.857110E-03 -8.622915E-04  9.429697E-04
         2   1  9.778777E-02  2.785678E-02  2.737897E-02 -2.099767E-03  3.313350E-04 -5.244864E-04
         2   2  8.651158E-02  2.030637E-03  8.229747E-03  2.334680E-03  5.051032E-03  2.576882E-05
         2   3  8.945267E-02 -5.503715E-03  1.817333E-02  1.004320E-03  1.055771E-02  5.631135E-04
         2   4  1.097050E-01  2.306471E-02  2.786942E-02 -1.583740E-03  1.180784E-03  9.611258E-05
         2   5  9.830846E-02  1.650561E-03  1.072747E-02  2.639679E-03  1.002332E-03  6.313106E-05
         2   6  9.987360E-02 -4.401459E-03  2.142274E-02  1.230325E-03  1.610860E-03  1.938151E-05
         2   7  1.168823E-01  2.414859E-02  2.870069E-02 -1.769963E-03  1.753397E-03  6.824877E-04
         2   8  1.035609E-01  2.935820E-03  1.176146E-02  2.696491E-03 -3.323205E-03  7.478536E-05
         2   9  1.019455E-01 -5.844485E-03  2.140388E-02  1.662196E-03 -7.612829E-03 -5.415433E-04
         2  10  5.574691E-02  1.229879E-02  1.006222E-02 -2.191579E-03  5.027727E-04 -8.693768E-04
         2  11  4.994170E-02 -2.687011E-03 -4.188816E-03  8.025619E-04  4.983401E-03 -5.998484E-04
         2  12  5.835390E-02  6.191349E-04  1.065332E-02 -1.968085E-03  1.025761E-02 -3.850815E-04
         2  13  6.808549E-02  7.663770E-03  1.072175E-02 -1.808971E-03  1.293697E-03  3.803694E-06
         2  14  6.209768E-02 -3.012174E-03 -1.570228E-03  8.812952E-04  8.987776E-04  2.240164E-05
         2  15  6.907166E-02  1.674155E-03  1.397538E-02 -2.061194E-03  1.297438E-03 -1.161911E-05
         2  16  7.560473E-02  8.870662E-03  1.168805E-02 -2.068460E-03  1.807360E-03  8.427602E-04
         2  17  6.762975E-02 -1.706054E-03 -4.494267E-04  7.719928E-04 -3.463109E-03  6.189437E-04
         2  18  7.136096E-02  1.498412E-04  1.399510E-02 -1.888285E-03 -7.939998E-03  3.446504E-04
         2  19  1.394886E-02 -3.150264E-03 -7.134170E-03 -2.432038E-03  6.914554E-04 -1.214653E-03
         2  20  1.364407E-02 -7.266272E-03 -1.641833E-02 -8.782015E-04  4.926281E-03 -1.227179E-03
         2  21  2.755682E-02  6.909814E-03  3.391043E-03 -5.089136E-03  9.961285E-03 -1.336317E-03
         2  22  2.673239E-02 -7.618118E-03 -6.295455E-03 -2.181520E-03  1.404232E-03 -8.889130E-05
         2  23  2.618272E-02 -7.526419E-03 -1.366877E-02 -1.024407E-03  7.861103E-04 -2.004081E-05
         2  24  3.859498E-02  7.927702E-03  6.795845E-03 -5.500033E-03  9.681691E-04 -4.565965E-05
         2  25  3.461712E-02 -6.278116E-03 -5.184020E-03 -2.512949E-03  1.839323E-03  1.002647E-03
         2  26  3.201801E-02 -6.189337E-03 -1.245106E-02 -1.298497E-03 -3.631748E-03  1.161389E-03
         2  27  4.112522E-02  6.332201E-03  6.864261E-03 -5.584758E-03 -8.302637E-03  1.227805E-03
         3   1  7.190404E-03  2.197492E-02  9.834232E-03  1.664965E-01 -2.045397E-04 -1.983576E-03
         3   2 -1.179770E-02 -2.120105E-02 -8.273923E-03 -4.352901E-02  2.536935E-04 -2.776940E-04
         3   3 -3.372882E-02 -6.726440E-02 -3.306614E-02  1.200774E-02  1.782894E-03  1.021568E-03
         3   4  8.622266E-03  2.619763E-02  1.132191E-02  1.690601E-01 -5.300167E-05 -8.303023E-04
         3   5 -1.195594E-02 -1.905891E-02 -8.607639E-03 -4.283562E-02 -5.701751E-05 -5.584774E-04
         3   6 -4.348764E-02 -7.063592E-02 -3.865433E-02  1.404596E-02  8.945125E-05 -6.932569E-04
         3   7  6.178200E-03  3.008472E-02  1.154613E-02  1.690914E-01  1.170185E-04  4.597208E-05
         3   8 -9.231642E-03 -1.435589E-02 -7.308328E-03 -4.417912E-02 -3.662075E-04 -1.116260E-03
         3   9 -4.360545E-02 -6.855007E-02 -3.971299E-02  1.454286E-02 -1.619433E-03 -2.685081E-03
         3  10 -6.064082E-03 -4.140542E-03 -1.872097E-03  1.667236E-01 -5.982550E-05 -2.305531E-03
         3  11 -3.847925E-03 -1.966508E-04  8.047544E-04 -4.340362E-02  2.907934E-04 -7.290506E-04
         3  12 -4.643815E-03  7.907973E-04 -3.363541E-03  1.203126E-02  1.597944E-03  6.015676E-04
         3  13 -4.761340E-03 -5.747819E-04 -6.178370E-04  1.690472E-01 -9.144573E-06 -1.012632E-03
         3  14 -3.976503E-03  1.815169E-03  4.410389E-04 -4.293878E-02 -8.710621E-06 -8.914544E-04
         3  15 -1.421418E-02 -2.184412E-03 -8.778306E-03  1.385251E-02  2.777239E-05 -1.016125E-03
         3  16 -7.297358E-03  2.742093E-03 -5.898645E-04  1.689348E-01  6.001848E-05  2.420257E-06
         3  17 -1.185373E-03  6.474597E-03  1.747518E-03 -4.441428E-02 -3.066936E-04 -1.331706E-03
         3  18 -1.410638E-02  3.844773E-04 -9.626389E-03  1.422899E-02 -1.557840E-03 -2.911666E-03
         3  19 -1.932877E-02 -3.027624E-02 -1.359218E-02  1.669668E-01  8.754229E-05 -2.644456E-03
         3  20  4.092817E-03  2.078867E-02  9.872393E-03 -4.326221E-02  3.293887E-04 -1.191077E-03
         3  21  2.443331E-02  6.882813E-02  2.633073E-02  1.207079E-02  1.413331E-03  1.771987E-04
         3  22 -1.814569E-02 -2.734537E-02 -1.256189E-02  1.690491E-01  3.736609E-05 -1.211156E-03
         3  23  4.003352E-03  2.269223E-02  9.488129E-03 -4.302708E-02  4.109161E-05 -1.234325E-03
         3  24  1.506085E-02  6.627129E-02  2.109884E-02  1.367392E-02 -3.356944E-05 -1.342587E-03
         3  25 -2.076421E-02 -2.457667E-02 -1.272071E-02  1.687920E-01  5.672019E-06 -5.655001E-05
         3  26  6.870762E-03  2.733011E-02  1.081123E-02 -4.463574E-02 -2.456843E-04 -1.556269E-03
         3  27  1.540371E-02  6.934526E-02  2.047079E-02  1.392882E-02 -1.495910E-03 -3.141069E-03
