
 displacements (vx,vy,vz) for set NALL and time  0.1000000E+01

         1  9.313507E-01 -3.421264E-10 -2.737610E-14
         2  8.619702E-01 -3.177821E-10 -2.737133E-14
         3  7.929342E-01 -2.934859E-10 -2.695240E-14
         4  7.245840E-01 -2.693045E-10 -2.611539E-14
         5  6.572633E-01 -2.453769E-10 -2.565071E-14
         6  5.913132E-01 -2.218478E-10 -2.390796E-14
         7  5.270788E-01 -1.988186E-10 -2.269539E-14
         8  4.649010E-01 -1.763858E-10 -2.145810E-14
         9  4.051249E-01 -1.546616E-10 -2.005340E-14
        10  3.480908E-01 -1.337583E-10 -1.835207E-14
        11  2.941446E-01 -1.137964E-10 -1.675418E-14
        12  2.436263E-01 -9.489458E-11 -1.514240E-14
        13  1.968826E-01 -7.720873E-11 -1.367287E-14
        14  1.542505E-01 -6.089525E-11 -1.201253E-14
        15  1.160780E-01 -4.612569E-11 -1.045973E-14
        16  8.270749E-02 -3.307205E-11 -8.672099E-15
        17  5.449104E-02 -2.192000E-11 -6.939870E-15
        18  3.174184E-02 -1.284081E-11 -5.265753E-15
        19  1.480054E-02 -6.019737E-12 -3.587896E-15
        20  4.079404E-03 -1.668334E-12 -1.819129E-15
        21  0.000000E+00  1.355253E-20  1.232595E-32

 stresses (elem, integ.pnt.,sxx,syy,szz,sxy,sxz,syz) for set EALL and time  0.1000000E+01

         1   1  3.501284E-09  2.100129E-08 -7.340721E-08 -2.472842E+01 -1.240888E+02  3.249382E-08
         1   2  1.385527E+01 -1.207908E+01 -4.352635E+02 -1.748563E+01 -1.515761E+02 -4.364572E+01
         1   3  2.483706E+01 -1.183965E+01 -6.033225E+02 -4.076542E-08 -1.790634E+02 -8.195540E-08
         1   4  1.385527E+01 -1.207908E+01 -4.352635E+02  1.748563E+01 -1.515761E+02  4.364571E+01
         1   5  2.292665E-08  3.207491E-08  8.774601E-08  2.472842E+01 -1.240888E+02  4.035467E-08
         1   6 -1.385527E+01  1.207908E+01  4.352635E+02  1.748563E+01 -1.515761E+02 -4.364571E+01
         1   7 -2.483706E+01  1.183965E+01  6.033225E+02 -3.297043E-08 -1.790634E+02  8.320628E-08
         1   8 -1.385527E+01  1.207908E+01  4.352635E+02 -1.748563E+01 -1.515761E+02  4.364572E+01
         1   9 -1.159202E-08  1.679504E-09 -3.225012E-07 -1.888860E+00 -1.432855E+02  4.507580E-08
         1  10 -1.791347E-01  1.799422E+00 -1.612609E+03 -1.335626E+00 -1.515761E+02 -1.387864E+02
         1  11  4.989417E+00  7.787519E+00 -2.268341E+03  2.961576E-08 -1.598667E+02 -9.766711E-08
         1  12 -1.791346E-01  1.799422E+00 -1.612609E+03  1.335626E+00 -1.515761E+02  1.387864E+02
         1  13 -1.061558E-09 -7.796861E-09  3.266737E-07  1.888860E+00 -1.432855E+02  1.732962E-08
         1  14  1.791347E-01 -1.799422E+00  1.612609E+03  1.335626E+00 -1.515761E+02 -1.387864E+02
         1  15 -4.989417E+00 -7.787519E+00  2.268341E+03  3.184272E-08 -1.598667E+02  1.418883E-07
         1  16  1.791347E-01 -1.799422E+00  1.612609E+03 -1.335626E+00 -1.515761E+02  1.387864E+02
         2   1 -5.216335E-09 -1.598946E-08 -7.024732E-07  1.304276E+01 -1.471279E+02  4.657649E-08
         2   2 -7.129877E+00 -9.855335E+00 -2.469014E+03  9.222623E+00 -1.515761E+02  7.278191E+00
         2   3 -1.147409E+01 -1.532847E+01 -3.494958E+03 -1.986002E-08 -1.560244E+02  6.528405E-08
         2   4 -7.129877E+00 -9.855335E+00 -2.469014E+03 -9.222623E+00 -1.515761E+02 -7.278191E+00
         2   5 -2.299821E-08 -2.024527E-08  7.194155E-07 -1.304276E+01 -1.471279E+02  7.379546E-08
         2   6  7.129877E+00  9.855335E+00  2.469014E+03 -9.222623E+00 -1.515761E+02  7.278191E+00
         2   7  1.147409E+01  1.532847E+01  3.494958E+03  2.847707E-09 -1.560244E+02  6.832179E-08
         2   8  7.129877E+00  9.855335E+00  2.469014E+03  9.222623E+00 -1.515761E+02 -7.278191E+00
         2   9  1.037085E-08  1.111414E-08 -1.416057E-06 -1.418896E+01 -1.420349E+02  8.115377E-08
         2  10  8.894023E+00  2.930683E+01 -3.646360E+03 -1.003311E+01 -1.515761E+02 -1.424644E+02
         2  11  1.118713E+01  4.005520E+01 -5.159977E+03  1.280153E-08 -1.611174E+02  6.744296E-08
         2  12  8.894023E+00  2.930683E+01 -3.646360E+03  1.003311E+01 -1.515761E+02  1.424644E+02
         2  13  2.959140E-08  2.176469E-08  1.457091E-06  1.418896E+01 -1.420349E+02  6.209962E-08
         2  14 -8.894023E+00 -2.930683E+01  3.646360E+03  1.003311E+01 -1.515761E+02 -1.424644E+02
         2  15 -1.118713E+01 -4.005520E+01  5.159977E+03  1.537573E-08 -1.611174E+02  6.739307E-08
         2  16 -8.894023E+00 -2.930683E+01  3.646360E+03 -1.003311E+01 -1.515761E+02  1.424644E+02
         3   1 -1.374648E-08  1.849407E-09 -1.837320E-06  1.761317E+01 -1.409552E+02  3.960236E-08
         3   2 -1.099575E+01 -3.981978E+01 -4.509643E+03  1.245439E+01 -1.515761E+02  2.234363E+00
         3   3 -1.523607E+01 -5.599940E+01 -6.376866E+03  8.205562E-09 -1.621970E+02  1.186387E-07
         3   4 -1.099575E+01 -3.981978E+01 -4.509643E+03 -1.245439E+01 -1.515761E+02 -2.234363E+00
         3   5  4.692617E-09  1.079352E-08  1.909529E-06 -1.761317E+01 -1.409552E+02  5.446078E-08
         3   6  1.099575E+01  3.981978E+01  4.509643E+03 -1.245439E+01 -1.515761E+02  2.234363E+00
         3   7  1.523607E+01  5.599940E+01  6.376866E+03  4.218700E-09 -1.621970E+02 -4.760684E-08
         3   8  1.099575E+01  3.981978E+01  4.509643E+03  1.245439E+01 -1.515761E+02 -2.234363E+00
         3   9  1.825517E-08  2.788974E-08 -2.294868E-06 -2.658087E+01 -1.421060E+02  5.153320E-08
         3  10  1.623837E+01  5.364378E+01 -5.686989E+03 -1.879551E+01 -1.515761E+02 -1.561214E+02
         3  11  2.327880E+01  7.617803E+01 -8.041884E+03 -2.219576E-08 -1.610463E+02  1.140971E-07
         3  12  1.623837E+01  5.364378E+01 -5.686989E+03  1.879551E+01 -1.515761E+02  1.561214E+02
         3  13  1.884230E-09  9.926974E-09  2.358927E-06  2.658087E+01 -1.421060E+02  3.731490E-08
         3  14 -1.623837E+01 -5.364378E+01  5.686989E+03  1.879551E+01 -1.515761E+02 -1.561214E+02
         3  15 -2.327880E+01 -7.617803E+01  8.041884E+03 -1.111152E-08 -1.610463E+02 -3.651478E-08
         3  16 -1.623837E+01 -5.364378E+01  5.686989E+03 -1.879551E+01 -1.515761E+02  1.561214E+02
         4   1 -2.227631E-08 -8.582078E-09 -2.685497E-06  3.320554E+01 -1.426151E+02  4.753510E-08
         4   2 -2.006268E+01 -6.592595E+01 -6.548730E+03  2.347986E+01 -1.515761E+02  2.203484E+01
         4   3 -2.822423E+01 -9.308470E+01 -9.260956E+03  2.840096E-09 -1.605372E+02 -3.657167E-08
         4   4 -2.006268E+01 -6.592595E+01 -6.548730E+03 -2.347986E+01 -1.515761E+02 -2.203484E+01
         4   5  9.918007E-09 -4.560040E-09  2.727063E-06 -3.320554E+01 -1.426151E+02  5.804208E-08
         4   6  2.006268E+01  6.592595E+01  6.548730E+03 -2.347986E+01 -1.515761E+02  2.203484E+01
         4   7  2.822423E+01  9.308470E+01  9.260956E+03 -7.592534E-09 -1.605372E+02  1.371233E-07
         4   8  2.006268E+01  6.592595E+01  6.548730E+03  2.347986E+01 -1.515761E+02 -2.203484E+01
         4   9 -3.337819E-10  1.055841E-08 -3.225968E-06 -4.199935E+01 -1.431595E+02  5.516614E-08
         4  10  2.473230E+01  8.499783E+01 -7.726076E+03 -2.969803E+01 -1.515761E+02 -1.752186E+02
         4  11  3.512543E+01  1.203538E+02 -1.092597E+04  9.319754E-10 -1.599928E+02 -4.838206E-08
         4  12  2.473230E+01  8.499783E+01 -7.726076E+03  2.969803E+01 -1.515761E+02  1.752186E+02
         4  13 -5.703782E-08 -5.332273E-10  3.268740E-06  4.199935E+01 -1.431595E+02  4.796990E-08
         4  14 -2.473230E+01 -8.499783E+01  7.726076E+03  2.969803E+01 -1.515761E+02 -1.752186E+02
         4  15 -3.512543E+01 -1.203538E+02  1.092597E+04  2.108511E-08 -1.599928E+02  1.427625E-07
         4  16 -2.473230E+01 -8.499783E+01  7.726076E+03 -2.969803E+01 -1.515761E+02  1.752186E+02
         5   1 -5.128701E-08 -2.177312E-08 -3.643644E-06  4.958599E+01 -1.421960E+02  5.818566E-08
         5   2 -2.986312E+01 -1.000065E+02 -8.587071E+03  3.506259E+01 -1.515761E+02  4.685570E+01
         5   3 -4.315339E+01 -1.423511E+02 -1.214610E+04 -2.778236E-09 -1.609562E+02 -6.214963E-08
         5   4 -2.986312E+01 -1.000065E+02 -8.587071E+03 -3.506259E+01 -1.515761E+02 -4.685570E+01
         5   5  1.284668E-08  1.209656E-08  3.697383E-06 -4.958599E+01 -1.421960E+02  5.872087E-08
         5   6  2.986312E+01  1.000065E+02  8.587071E+03 -3.506259E+01 -1.515761E+02  4.685570E+01
         5   7  4.315339E+01  1.423511E+02  1.214610E+04 -2.231153E-08 -1.609562E+02  1.661634E-07
         5   8  2.986312E+01  1.000065E+02  8.587071E+03  3.506259E+01 -1.515761E+02 -4.685570E+01
         5   9  4.178382E-08  2.089426E-08 -4.207701E-06 -6.211034E+01 -1.388253E+02  5.583138E-08
         5  10  4.008458E+01  1.257054E+02 -9.764416E+03 -4.391864E+01 -1.515761E+02 -2.164893E+02
         5  11  5.576759E+01  1.768538E+02 -1.381112E+04 -7.190093E-09 -1.643269E+02 -8.050526E-08
         5  12  4.008458E+01  1.257054E+02 -9.764416E+03  4.391864E+01 -1.515761E+02  2.164893E+02
         5  13 -4.044647E-08 -2.837929E-09  4.276914E-06  6.211034E+01 -1.388253E+02  5.588488E-08
         5  14 -4.008458E+01 -1.257054E+02  9.764416E+03  4.391864E+01 -1.515761E+02 -2.164893E+02
         5  15 -5.576759E+01 -1.768538E+02  1.381112E+04  3.056896E-08 -1.643269E+02  1.695496E-07
         5  16 -4.008458E+01 -1.257054E+02  9.764416E+03 -4.391864E+01 -1.515761E+02  2.164893E+02
         6   1 -7.914934E-08 -1.397020E-08 -4.691357E-06  7.274395E+01 -1.423001E+02  7.260136E-08
         6   2 -4.496544E+01 -1.480315E+02 -1.063004E+04  5.143774E+01 -1.515761E+02  8.544569E+01
         6   3 -5.996876E+01 -2.057262E+02 -1.502470E+04  6.126345E-09 -1.608522E+02 -6.686432E-08
         6   4 -4.496544E+01 -1.480315E+02 -1.063004E+04 -5.143774E+01 -1.515761E+02 -8.544569E+01
         6   5  5.888675E-08  2.037779E-08  4.752315E-06 -7.274395E+01 -1.423001E+02  7.424609E-08
         6   6  4.496544E+01  1.480315E+02  1.063004E+04 -5.143774E+01 -1.515761E+02  8.544569E+01
         6   7  5.996876E+01  2.057262E+02  1.502470E+04 -3.458621E-08 -1.608522E+02  2.014917E-07
         6   8  4.496544E+01  1.480315E+02  1.063004E+04  5.143774E+01 -1.515761E+02 -8.544569E+01
         6   9  7.492553E-08  2.424857E-08 -5.466182E-06 -8.717687E+01 -1.555622E+02  6.940004E-08
         6  10  4.504006E+01  1.758691E+02 -1.180739E+04 -6.164335E+01 -1.515761E+02 -2.299425E+02
         6  11  6.731824E+01  2.523384E+02 -1.668972E+04 -1.925869E-08 -1.475901E+02 -6.152810E-08
         6  12  4.504006E+01  1.758691E+02 -1.180739E+04  6.164335E+01 -1.515761E+02  2.299425E+02
         6  13 -8.009420E-08 -1.601003E-08  5.525672E-06  8.717687E+01 -1.555622E+02  6.802652E-08
         6  14 -4.504006E+01 -1.758691E+02  1.180739E+04  6.164335E+01 -1.515761E+02 -2.299425E+02
         6  15 -6.731824E+01 -2.523384E+02  1.668972E+04  4.517624E-08 -1.475901E+02  2.012910E-07
         6  16 -4.504006E+01 -1.758691E+02  1.180739E+04 -6.164335E+01 -1.515761E+02  2.299425E+02
         7   1 -1.406453E-07 -4.231459E-08 -6.059116E-06  9.953938E+01 -1.423164E+02  8.044427E-08
         7   2 -5.694986E+01 -1.958681E+02 -1.265488E+04  7.038497E+01 -1.515761E+02  1.389159E+02
         7   3 -9.435560E+01 -2.908157E+02 -1.792894E+04  3.495370E-08 -1.608359E+02  3.382415E-09
         7   4 -5.694986E+01 -1.958681E+02 -1.265488E+04 -7.038497E+01 -1.515761E+02 -1.389159E+02
         7   5  9.287074E-08  3.095539E-08  6.108101E-06 -9.953938E+01 -1.423164E+02  7.961533E-08
         7   6  5.694986E+01  1.958681E+02  1.265488E+04 -7.038497E+01 -1.515761E+02  1.389159E+02
         7   7  9.435560E+01  2.908157E+02  1.792894E+04 -3.346398E-08 -1.608359E+02  1.377634E-07
         7   8  5.694986E+01  1.958681E+02  1.265488E+04  7.038497E+01 -1.515761E+02 -1.389159E+02
         7   9  1.321157E-07  4.766993E-08 -6.881134E-06 -1.268178E+02 -9.172694E+01  1.021214E-07
         7  10  1.008571E+02  2.587762E+02 -1.383222E+04 -8.967375E+01 -1.515761E+02 -4.236520E+02
         7  11  1.288171E+02  3.521485E+02 -1.959396E+04 -5.026741E-08 -2.114253E+02 -3.447740E-08
         7  12  1.008571E+02  2.587762E+02 -1.383222E+04  8.967375E+01 -1.515761E+02  4.236520E+02
         7  13 -1.315318E-07 -5.198402E-08  6.941779E-06  1.268178E+02 -9.172694E+01  9.997453E-08
         7  14 -1.008571E+02 -2.587762E+02  1.383222E+04  8.967375E+01 -1.515761E+02 -4.236520E+02
         7  15 -1.288171E+02 -3.521485E+02  1.959396E+04  5.273021E-08 -2.114253E+02  1.350159E-07
         7  16 -1.008571E+02 -2.587762E+02  1.383222E+04 -8.967375E+01 -1.515761E+02  4.236520E+02
         8   1 -1.758278E-07 -4.050806E-08 -7.479639E-06  1.510921E+02 -1.425354E+02  8.332917E-08
         8   2 -1.044357E+02 -3.240129E+02 -1.474888E+04  1.068383E+02 -1.515761E+02  2.186574E+02
         8   3 -9.510694E+01 -4.056359E+02 -2.073536E+04  6.148048E-08 -1.606169E+02  3.782360E-12
         8   4 -1.044357E+02 -3.240129E+02 -1.474888E+04 -1.068383E+02 -1.515761E+02 -2.186574E+02
         8   5  1.558833E-07  3.781919E-08  7.544150E-06 -1.510921E+02 -1.425354E+02  8.557877E-08
         8   6  1.044357E+02  3.240129E+02  1.474888E+04 -1.068383E+02 -1.515761E+02  2.186574E+02
         8   7  9.510694E+01  4.056359E+02  2.073536E+04 -5.883694E-08 -1.606169E+02  1.524521E-07
         8   8  1.044357E+02  3.240129E+02  1.474888E+04  1.068383E+02 -1.515761E+02 -2.186574E+02
         8   9  2.065016E-07  4.317913E-08 -8.358305E-06 -1.598414E+02 -3.350879E+02  7.374692E-09
         8  10  2.685906E+01  3.127109E+02 -1.592623E+04 -1.130249E+02 -1.515761E+02 -3.043876E+01
         8  11  9.057190E+01  4.948274E+02 -2.240038E+04 -6.796968E-08  3.193561E+01  7.827561E-08
         8  12  2.685906E+01  3.127109E+02 -1.592623E+04  1.130249E+02 -1.515761E+02  3.043876E+01
         8  13 -2.038475E-07 -3.734748E-08  8.429638E-06  1.598414E+02 -3.350879E+02  6.096541E-09
         8  14 -2.685906E+01 -3.127109E+02  1.592623E+04  1.130249E+02 -1.515761E+02 -3.043876E+01
         8  15 -9.057190E+01 -4.948274E+02  2.240038E+04  6.521202E-08  3.193561E+01  2.310686E-07
         8  16 -2.685906E+01 -3.127109E+02  1.592623E+04 -1.130249E+02 -1.515761E+02  3.043876E+01
         9   1 -2.311945E-07 -1.074900E-07 -9.142845E-06  1.636392E+02 -1.407617E+02  8.781732E-08
         9   2 -5.040883E+01 -2.577825E+02 -1.658000E+04  1.157104E+02 -1.515761E+02  3.111848E+02
         9   3 -2.709574E+02 -5.642280E+02 -2.391356E+04  6.534394E-08 -1.623906E+02 -1.492570E-08
         9   4 -5.040883E+01 -2.577825E+02 -1.658000E+04 -1.157104E+02 -1.515761E+02 -3.111848E+02
         9   5  2.346684E-07  1.165472E-07  9.214720E-06 -1.636392E+02 -1.407617E+02  9.046052E-08
         9   6  5.040883E+01  2.577825E+02  1.658000E+04 -1.157104E+02 -1.515761E+02  3.111848E+02
         9   7  2.709574E+02  5.642280E+02  2.391356E+04 -6.770606E-08 -1.623906E+02  1.692657E-07
         9   8  5.040883E+01  2.577825E+02  1.658000E+04  1.157104E+02 -1.515761E+02 -3.111848E+02
         9   9  2.697612E-07  1.246526E-07 -1.004272E-05 -2.805695E+02  5.903379E+02  3.893292E-07
         9  10  3.568639E+02  6.143092E+02 -1.775735E+04 -1.983926E+02 -1.515761E+02 -2.003658E+03
         9  11  3.050133E+02  6.690959E+02 -2.557858E+04 -1.187538E-07 -8.934902E+02 -3.215809E-07
         9  12  3.568639E+02  6.143092E+02 -1.775735E+04  1.983926E+02 -1.515761E+02  2.003658E+03
         9  13 -2.717212E-07 -1.216430E-07  1.011131E-05  2.805695E+02  5.903379E+02  3.822092E-07
         9  14 -3.568639E+02 -6.143092E+02  1.775735E+04  1.983926E+02 -1.515761E+02 -2.003658E+03
         9  15 -3.050133E+02 -6.690959E+02  2.557858E+04  1.132970E-07 -8.934902E+02 -1.294605E-07
         9  16 -3.568639E+02 -6.143092E+02  1.775735E+04 -1.983926E+02 -1.515761E+02  2.003658E+03
        10   1 -3.170029E-07  6.588857E-08 -1.022709E-05  4.012829E+02 -1.517970E+02  7.958113E-08
        10   2 -4.278542E+02 -1.084227E+03 -1.940835E+04  2.837498E+02 -1.515761E+02  5.124093E+02
        10   3  1.518114E+02 -7.764400E+02 -2.568147E+04  1.650662E-07 -1.513552E+02 -1.984779E-08
        10   4 -4.278542E+02 -1.084227E+03 -1.940835E+04 -2.837498E+02 -1.515761E+02 -5.124093E+02
        10   5  3.157192E-07 -6.101506E-08  1.029425E-05 -4.012829E+02 -1.517970E+02  8.252321E-08
        10   6  4.278542E+02  1.084227E+03  1.940835E+04 -2.837498E+02 -1.515761E+02  5.124093E+02
        10   7 -1.518114E+02  7.764400E+02  2.568147E+04 -1.639791E-07 -1.513552E+02  1.787534E-07
        10   8  4.278542E+02  1.084227E+03  1.940835E+04  2.837498E+02 -1.515761E+02 -5.124093E+02
        10   9  4.018165E-07  1.296826E-07 -1.110774E-05 -1.758426E+02 -2.923196E+03 -1.061467E-06
        10  10 -3.069707E+02  1.540994E+02 -2.058569E+04 -1.243395E+02 -1.515761E+02  4.818142E+03
        10  11  3.227665E+02  9.748182E+02 -2.734649E+04 -6.035880E-08  2.620043E+03  1.117018E-06
        10  12 -3.069707E+02  1.540994E+02 -2.058569E+04  1.243395E+02 -1.515761E+02 -4.818142E+03
        10  13 -4.029888E-07 -1.300384E-07  1.117569E-05  1.758426E+02 -2.923196E+03 -1.051798E-06
        10  14  3.069707E+02 -1.540994E+02  2.058569E+04  1.243395E+02 -1.515761E+02  4.818142E+03
        10  15 -3.227665E+02 -9.748182E+02  2.734649E+04  7.836105E-08  2.620043E+03  1.317508E-06
        10  16  3.069707E+02 -1.540994E+02  2.058569E+04 -1.243395E+02 -1.515761E+02 -4.818142E+03
