
 stresses (elem, integ.pnt.,sxx,syy,szz,sxy,sxz,syz) for set EALL and time  0.1000000E+01

         1   1 -4.280279E-10 -1.302813E-11  7.339530E-10  1.297382E+02 -1.436048E+03 -3.415694E-10
         1   2  2.594764E+02 -2.594764E+02  2.407553E-09  3.469447E-10 -1.023784E+03 -1.023784E+03
         1   3  4.091742E-10  9.463637E-10  1.920977E-09 -1.297382E+02  3.232853E-10 -1.436048E+03
         1   4 -2.594764E+02  2.594764E+02 -1.746952E-10  1.868164E-10  1.023784E+03 -1.023784E+03
         1   5 -5.838131E-10 -3.934637E-10 -1.187918E-09  1.297382E+02  1.436048E+03 -3.194215E-10
         1   6  2.594764E+02 -2.594764E+02 -1.130901E-09  2.135044E-10  1.023784E+03  1.023784E+03
         1   7  3.827197E-10  2.972853E-10 -1.334518E-09 -1.297382E+02  3.178727E-10  1.436048E+03
         1   8 -2.594764E+02  2.594764E+02 -9.512724E-10  1.868164E-10 -1.023784E+03  1.023784E+03
         1   9  2.813840E-10  1.517405E-10  3.216887E-09  1.082428E-01 -1.436048E+03 -1.606528E-10
         1  10  2.164857E-01 -2.164857E-01  6.891131E-09 -2.135044E-10 -1.023784E+03 -1.023784E+03
         1  11  6.141297E-11 -2.705720E-10  7.009407E-09 -1.082428E-01  5.865184E-10 -1.436048E+03
         1  12 -2.164857E-01  2.164857E-01  3.065448E-09 -4.003208E-10  1.023784E+03 -1.023784E+03
         1  13  1.487917E-10 -2.406378E-10 -3.018059E-09  1.082428E-01  1.436048E+03 -2.693318E-10
         1  14  2.164857E-01 -2.164857E-01 -7.258451E-09 -3.469447E-10  1.023784E+03  1.023784E+03
         1  15  1.860485E-10 -1.413258E-10 -6.958032E-09 -1.082428E-01  6.554590E-10  1.436048E+03
         1  16 -2.164857E-01  2.164857E-01 -2.482976E-09 -2.668805E-10 -1.023784E+03  1.023784E+03
         2   1  2.046101E-10  6.349160E-11  7.154585E-09 -3.466359E+01 -1.443525E+03 -8.829417E-10
         2   2 -6.932718E+01  6.932718E+01  1.348341E-08  2.401925E-10 -1.018497E+03 -1.018497E+03
         2   3 -1.246021E-10 -2.605731E-10  1.175700E-08  3.466359E+01  6.994454E-10 -1.443525E+03
         2   4  6.932718E+01 -6.932718E+01  3.277508E-09  2.135044E-10  1.018497E+03 -1.018497E+03
         2   5  1.453992E-10  1.951728E-11 -6.926221E-09 -3.466359E+01  1.443525E+03 -7.161669E-10
         2   6 -6.932718E+01  6.932718E+01 -1.303817E-08  2.935686E-10  1.018497E+03  1.018497E+03
         2   7 -1.253301E-10 -2.207547E-10 -1.187748E-08  3.466359E+01  6.818921E-10  1.443525E+03
         2   8  6.932718E+01 -6.932718E+01 -3.630740E-09  2.668805E-10 -1.018497E+03  1.018497E+03
         2   9 -5.840693E-11  1.591050E-10  1.650227E-08 -3.204902E-02 -1.443525E+03 -8.909787E-10
         2  10 -6.409805E-02  6.409804E-02  2.510848E-08 -1.467843E-10 -1.018497E+03 -1.018497E+03
         2  11 -6.927179E-11 -3.354044E-11  1.923154E-08  3.204902E-02  7.219009E-10 -1.443525E+03
         2  12  6.409805E-02 -6.409804E-02  2.094777E-09 -2.668805E-11  1.018497E+03 -1.018497E+03
         2  13  1.377310E-10  5.055670E-11 -1.640829E-08 -3.204902E-02  1.443525E+03 -1.029243E-09
         2  14 -6.409805E-02  6.409805E-02 -2.516710E-08 -2.001604E-10  1.018497E+03  1.018497E+03
         2  15  1.744531E-10  2.063095E-10 -1.914044E-08  3.204902E-02  7.076172E-10  1.443525E+03
         2  16  6.409805E-02 -6.409804E-02 -1.978894E-09 -3.069126E-10 -1.018497E+03  1.018497E+03
         3   1  2.455077E-10 -1.006519E-10  2.591151E-08  9.261464E+00 -1.441528E+03 -1.614743E-09
         3   2  1.852293E+01 -1.852293E+01  3.405380E-08  1.067522E-10 -1.019909E+03 -1.019909E+03
         3   3 -1.281454E-10 -3.864238E-10  2.239503E-08 -9.261464E+00  1.293352E-10 -1.441528E+03
         3   4 -1.852293E+01  1.852293E+01 -2.226695E-09  1.334403E-10  1.019909E+03 -1.019909E+03
         3   5 -5.580652E-10 -3.108857E-10 -2.591175E-08  9.261464E+00  1.441528E+03 -1.518375E-09
         3   6  1.852293E+01 -1.852293E+01 -3.414194E-08  2.935686E-10  1.019909E+03  1.019909E+03
         3   7  9.358251E-11  2.275619E-10 -2.223573E-08 -9.261464E+00  1.440386E-10  1.441528E+03
         3   8 -1.852293E+01  1.852293E+01  2.587644E-09  2.401925E-10 -1.019909E+03  1.019909E+03
         3   9 -3.453792E-10 -1.412190E-10  4.322155E-08  2.027251E-02 -1.441528E+03 -1.761655E-09
         3  10  4.054502E-02 -4.054502E-02  4.715303E-08 -1.067522E-10 -1.019909E+03 -1.019909E+03
         3  11  1.716766E-10  2.148302E-10  2.337142E-08 -2.027251E-02  3.416694E-11 -1.441528E+03
         3  12 -4.054502E-02  4.054502E-02 -1.396556E-08  8.006416E-11  1.019909E+03 -1.019909E+03
         3  13  5.148614E-10  2.237098E-10 -4.304278E-08  2.027251E-02  1.441528E+03 -1.820938E-09
         3  14  4.054502E-02 -4.054502E-02 -4.680462E-08 -1.601283E-10  1.019909E+03  1.019909E+03
         3  15  1.787427E-11 -1.635382E-10 -2.319565E-08 -2.027251E-02 -1.468019E-12  1.441528E+03
         3  16 -4.054502E-02  4.054502E-02  1.390707E-08 -3.202566E-10 -1.019909E+03  1.019909E+03
         4   1  6.662702E-10  2.827338E-10  5.917222E-08 -2.474524E+00 -1.442059E+03 -2.434251E-09
         4   2 -4.949048E+00  4.949048E+00  5.612948E-08 -2.135044E-10 -1.019533E+03 -1.019533E+03
         4   3 -3.075104E-10 -4.060576E-10  2.031335E-08  2.474524E+00 -8.546366E-10 -1.442059E+03
         4   4  4.949048E+00 -4.949048E+00 -2.724308E-08 -2.401925E-10  1.019533E+03 -1.019533E+03
         4   5 -6.918851E-10 -3.227879E-10 -5.887098E-08 -2.474524E+00  1.442059E+03 -2.402056E-09
         4   6 -4.949048E+00  4.949048E+00 -5.596414E-08  6.672013E-11  1.019533E+03  1.019533E+03
         4   7  4.738775E-11  1.771504E-10 -2.014198E-08  2.474524E+00 -7.800441E-10  1.442059E+03
         4   8  4.949048E+00 -4.949048E+00  2.757209E-08  9.340819E-11 -1.019533E+03  1.019533E+03
         4   9 -7.337775E-10 -5.185649E-11  8.358889E-08 -4.924296E-02 -1.442059E+03 -2.217738E-09
         4  10 -9.848592E-02  9.848592E-02  6.781755E-08  1.467843E-10 -1.019533E+03 -1.019533E+03
         4  11  1.531592E-10  3.418969E-10  1.245626E-08  4.924296E-02 -6.095370E-10 -1.442059E+03
         4  12  9.848592E-02 -9.848592E-02 -5.020274E-08  3.736327E-10  1.019533E+03 -1.019533E+03
         4  13  9.667535E-10  2.333723E-10 -8.328956E-08 -4.924296E-02  1.442059E+03 -2.242421E-09
         4  14 -9.848592E-02  9.848592E-02 -6.760260E-08  2.668805E-11  1.019533E+03  1.019533E+03
         4  15 -8.948834E-11 -2.812534E-10 -1.224684E-08  4.924296E-02 -7.055256E-10  1.442059E+03
         4  16  9.848592E-02 -9.848592E-02  5.028808E-08 -1.601283E-10 -1.019533E+03  1.019533E+03
         5   1  7.831540E-10  2.125329E-10  9.850980E-08  6.612816E-01 -1.441926E+03 -1.811168E-09
         5   2  1.322563E+00 -1.322563E+00  7.446172E-08  0.000000E+00 -1.019627E+03 -1.019627E+03
         5   3 -6.681495E-11 -5.495396E-10  7.034421E-09 -6.612816E-01 -8.697447E-10 -1.441926E+03
         5   4 -1.322563E+00  1.322563E+00 -6.439663E-08 -3.336007E-10  1.019627E+03 -1.019627E+03
         5   5 -7.293269E-10 -1.215168E-10 -9.827146E-08  6.612816E-01  1.441926E+03 -1.769436E-09
         5   6  1.322563E+00 -1.322563E+00 -7.462962E-08  2.935686E-10  1.019627E+03  1.019627E+03
         5   7 -2.058335E-12  5.939964E-10 -6.845862E-09 -6.612816E-01 -7.494014E-10  1.441926E+03
         5   8 -1.322563E+00  1.322563E+00  6.492692E-08  5.871372E-10 -1.019627E+03  1.019627E+03
         5   9 -1.156284E-09 -4.182122E-10  1.166607E-07  1.771899E-01 -1.441926E+03 -1.698120E-09
         5  10  3.543797E-01 -3.543797E-01  8.170441E-08 -6.672013E-11 -1.019627E+03 -1.019627E+03
         5  11  2.113411E-10  4.883630E-10 -1.316232E-09 -1.771899E-01 -7.761938E-10 -1.441926E+03
         5  12 -3.543797E-01  3.543797E-01 -8.344318E-08  2.668805E-10  1.019627E+03 -1.019627E+03
         5  13  1.243211E-09  2.614777E-10 -1.163887E-07  1.771899E-01  1.441926E+03 -1.756872E-09
         5  14  3.543797E-01 -3.543797E-01 -8.113562E-08 -1.067522E-10  1.019627E+03  1.019627E+03
         5  15 -2.125171E-10 -7.617024E-10  1.527827E-09 -1.771899E-01 -9.072422E-10  1.441926E+03
         5  16 -3.543797E-01  3.543797E-01  8.331001E-08 -5.204170E-10 -1.019627E+03  1.019627E+03
         6   1  1.072302E-09  4.853627E-10  1.273477E-07 -1.771899E-01 -1.441926E+03 -1.130294E-09
         6   2 -3.543797E-01  3.543797E-01  8.381889E-08 -4.003208E-11 -1.019627E+03 -1.019627E+03
         6   3 -1.561045E-10 -6.881624E-10 -8.621452E-09  1.771899E-01 -1.182566E-09 -1.441926E+03
         6   4  3.543797E-01 -3.543797E-01 -9.597151E-08 -3.336007E-10  1.019627E+03 -1.019627E+03
         6   5 -9.597792E-10 -4.321537E-10 -1.270639E-07 -1.771899E-01  1.441926E+03 -1.045041E-09
         6   6 -3.543797E-01  3.543797E-01 -8.379950E-08  3.202566E-10  1.019627E+03  1.019627E+03
         6   7  2.072900E-10  6.251169E-10  8.855115E-09  1.771899E-01 -1.043588E-09  1.441926E+03
         6   8  3.543797E-01 -3.543797E-01  9.642831E-08  5.204170E-10 -1.019627E+03  1.019627E+03
         6   9 -1.445862E-09 -2.457609E-10  1.373951E-07 -6.612816E-01 -1.441926E+03 -7.509052E-10
         6  10 -1.322563E+00  1.322563E+00  8.262164E-08  4.670409E-11 -1.019627E+03 -1.019627E+03
         6  11  6.206986E-11  7.343559E-10 -2.072253E-08  6.612816E-01 -1.074788E-09 -1.441926E+03
         6  12  1.322563E+00 -1.322563E+00 -1.118407E-07  4.069928E-10  1.019627E+03 -1.019627E+03
         6  13  1.355665E-09  2.407226E-10 -1.371339E-07 -6.612816E-01  1.441926E+03 -8.415855E-10
         6  14 -1.322563E+00  1.322563E+00 -8.213616E-08 -2.468645E-10  1.019627E+03  1.019627E+03
         6  15 -2.871040E-10 -8.398080E-10  2.091632E-08  6.612816E-01 -1.193415E-09  1.441926E+03
         6  16  1.322563E+00 -1.322563E+00  1.118642E-07 -6.271693E-10 -1.019627E+03  1.019627E+03
         7   1  1.606066E-09  3.933363E-10  1.427921E-07  4.924296E-02 -1.442059E+03 -5.979885E-10
         7   2  9.848592E-02 -9.848592E-02  8.038944E-08 -1.401123E-10 -1.019533E+03 -1.019533E+03
         7   3 -2.844617E-10 -9.087951E-10 -2.877800E-08 -4.924296E-02 -9.852382E-10 -1.442059E+03
         7   4 -9.848592E-02  9.848592E-02 -1.208527E-07 -5.804652E-10  1.019533E+03 -1.019533E+03
         7   5 -1.518273E-09 -4.991009E-10 -1.425360E-07  4.924296E-02  1.442059E+03 -5.301790E-10
         7   6  9.848592E-02 -9.848592E-02 -8.041184E-08  2.802246E-10  1.019533E+03  1.019533E+03
         7   7  3.316871E-10  8.205164E-10  2.902369E-08 -4.924296E-02 -8.996843E-10  1.442059E+03
         7   8 -9.848592E-02  9.848592E-02  1.214360E-07  7.539375E-10 -1.019533E+03  1.019533E+03
         7   9 -2.083318E-09 -6.999678E-10  1.491647E-07  2.474524E+00 -1.442059E+03 -9.276287E-10
         7  10  4.949048E+00 -4.949048E+00  7.820401E-08  1.534563E-10 -1.019533E+03 -1.019533E+03
         7  11  3.232992E-10  1.059300E-09 -3.856478E-08 -2.474524E+00 -1.094599E-09 -1.442059E+03
         7  12 -4.949048E+00  4.949048E+00 -1.324237E-07  6.738734E-10  1.019533E+03 -1.019533E+03
         7  13  2.084885E-09  8.091720E-10 -1.488515E-07  2.474524E+00  1.442059E+03 -9.743628E-10
         7  14  4.949048E+00 -4.949048E+00 -7.773364E-08 -3.269287E-10  1.019533E+03  1.019533E+03
         7  15 -4.630348E-10 -1.130968E-09  3.877781E-08 -2.474524E+00 -1.147263E-09  1.442059E+03
         7  16 -4.949048E+00  4.949048E+00  1.325267E-07 -8.540177E-10 -1.019533E+03  1.019533E+03
         8   1  2.424120E-09  6.403662E-10  1.527620E-07 -2.027251E-02 -1.441528E+03 -4.306260E-10
         8   2 -4.054502E-02  4.054502E-02  7.607806E-08 -2.935686E-10 -1.019909E+03 -1.019909E+03
         8   3 -3.717119E-10 -1.348996E-09 -4.539762E-08  2.027251E-02 -9.233366E-10 -1.441528E+03
         8   4  4.054502E-02 -4.054502E-02 -1.406650E-07 -9.340819E-10  1.019909E+03 -1.019909E+03
         8   5 -2.312284E-09 -6.541504E-10 -1.524749E-07 -2.027251E-02  1.441528E+03 -3.844759E-10
         8   6 -4.054502E-02  4.054502E-02 -7.593165E-08  2.868966E-10  1.019909E+03  1.019909E+03
         8   7  3.315731E-10  1.234329E-09  4.560979E-08  2.027251E-02 -8.756308E-10  1.441528E+03
         8   8  4.054502E-02 -4.054502E-02  1.410971E-07  9.140658E-10 -1.019909E+03  1.019909E+03
         8   9 -2.956511E-09 -5.236049E-10  1.567905E-07 -9.261464E+00 -1.441528E+03  7.598976E-10
         8  10 -1.852293E+01  1.852293E+01  7.267344E-08  2.535365E-10 -1.019909E+03 -1.019909E+03
         8  11  2.093864E-10  1.536802E-09 -5.426833E-08  9.261464E+00 -1.766347E-10 -1.441528E+03
         8  12  1.852293E+01 -1.852293E+01 -1.499350E-07  9.874580E-10  1.019909E+03 -1.019909E+03
         8  13  2.884437E-09  5.526658E-10 -1.564988E-07 -9.261464E+00  1.441528E+03  7.398962E-10
         8  14 -1.852293E+01  1.852293E+01 -7.229674E-08 -2.735525E-10  1.019909E+03  1.019909E+03
         8  15 -2.786360E-10 -1.533080E-09  5.455419E-08  9.261464E+00 -2.099213E-10  1.441528E+03
         8  16  1.852293E+01 -1.852293E+01  1.501566E-07 -1.034162E-09 -1.019909E+03  1.019909E+03
         9   1  3.259702E-09  1.554109E-09  1.611287E-07  3.204902E-02 -1.443525E+03 -3.417370E-10
         9   2  6.409805E-02 -6.409805E-02  6.888103E-08 -3.336007E-10 -1.018497E+03 -1.018497E+03
         9   3 -8.797518E-10 -1.893151E-09 -6.250639E-08 -3.204902E-02 -1.083630E-09 -1.443525E+03
         9   4 -6.409805E-02  6.409804E-02 -1.549767E-07 -1.080866E-09  1.018497E+03 -1.018497E+03
         9   5 -3.336784E-09 -1.648074E-09 -1.609236E-07  3.204902E-02  1.443525E+03 -3.199180E-10
         9   6  6.409804E-02 -6.409804E-02 -6.864112E-08  3.336007E-10  1.018497E+03  1.018497E+03
         9   7  8.448265E-10  1.857291E-09  6.274387E-08 -3.204902E-02 -1.065627E-09  1.443525E+03
         9   8 -6.409804E-02  6.409805E-02  1.552470E-07  1.040834E-09 -1.018497E+03  1.018497E+03
         9   9 -3.951382E-09 -1.702199E-09  1.642184E-07  3.466359E+01 -1.443525E+03 -4.521478E-09
         9  10  6.932718E+01 -6.932718E+01  6.304002E-08  4.703769E-10 -1.018497E+03 -1.018497E+03
         9  11  1.049208E-09  2.209582E-09 -7.380407E-08 -3.466359E+01 -3.576120E-09 -1.443525E+03
         9  12 -6.932718E+01  6.932718E+01 -1.651289E-07  1.834804E-09  1.018497E+03 -1.018497E+03
         9  13  3.944770E-09  1.682392E-09 -1.639882E-07  3.466359E+01  1.443525E+03 -4.554736E-09
         9  14  6.932718E+01 -6.932718E+01 -6.283649E-08 -4.236728E-10  1.018497E+03  1.018497E+03
         9  15 -1.098188E-09 -2.269681E-09  7.401170E-08 -3.466359E+01 -3.587687E-09  1.443525E+03
         9  16 -6.932718E+01  6.932718E+01  1.654174E-07 -1.821460E-09 -1.018497E+03  1.018497E+03
        10   1  4.593770E-09 -8.229256E-10  1.595792E-07 -1.082428E-01 -1.436048E+03 -1.901664E-10
        10   2 -2.164857E-01  2.164857E-01  6.030944E-08 -7.489335E-10 -1.023784E+03 -1.023784E+03
        10   3  5.116714E-10 -2.582534E-09 -7.850157E-08  1.082428E-01 -1.109686E-09 -1.436048E+03
        10   4  2.164857E-01 -2.164857E-01 -1.797117E-07 -2.637113E-09  1.023784E+03 -1.023784E+03
        10   5 -4.559400E-09  8.491721E-10 -1.593102E-07 -1.082428E-01  1.436048E+03 -1.720754E-10
        10   6 -2.164857E-01  2.164857E-01 -5.998872E-08  7.439295E-10  1.023784E+03  1.023784E+03
        10   7 -5.353082E-10  2.586349E-09  7.873700E-08  1.082428E-01 -1.088843E-09  1.436048E+03
        10   8  2.164857E-01 -2.164857E-01  1.799107E-07  2.660465E-09 -1.023784E+03  1.023784E+03
        10   9 -5.590450E-09 -1.935141E-09  1.620351E-07 -1.297382E+02 -1.436048E+03  1.594621E-08
        10  10 -2.594764E+02  2.594764E+02  5.370832E-08  4.482759E-10 -1.023784E+03 -1.023784E+03
        10  11  1.043692E-09  3.354411E-09 -9.019671E-08  1.297382E+02  8.309076E-09 -1.436048E+03
        10  12  2.594764E+02 -2.594764E+02 -1.896749E-07  1.169270E-09  1.023784E+03 -1.023784E+03
        10  13  5.617643E-09  1.931640E-09 -1.617432E-07 -1.297382E+02  1.436048E+03  1.598036E-08
        10  14 -2.594764E+02  2.594764E+02 -5.353312E-08 -4.140818E-10  1.023784E+03  1.023784E+03
        10  15 -9.635356E-10 -3.356911E-09  9.049531E-08  1.297382E+02  8.260085E-09  1.436048E+03
        10  16  2.594764E+02 -2.594764E+02  1.900144E-07 -1.130489E-09 -1.023784E+03  1.023784E+03
