
 stresses (elem, integ.pnt.,sxx,syy,szz,sxy,sxz,syz) for set EALL and time  0.1000000E+01

         1   1 -4.092020E-01  6.357096E-01  4.685125E+02  3.178548E-01 -1.600000E+01  1.271419E+01
         1   2  4.092019E-01 -6.357097E-01  1.748512E+03 -3.178548E-01 -1.600000E+01  1.271419E+01
         1   3 -4.092019E-01  6.357097E-01  4.685125E+02 -3.178548E-01 -1.600000E+01 -1.271419E+01
         1   4  4.092020E-01 -6.357096E-01  1.748512E+03  3.178548E-01 -1.600000E+01 -1.271419E+01
         1   5  4.092020E-01 -6.357096E-01 -4.685125E+02  3.178548E-01 -1.600000E+01 -1.271419E+01
         1   6 -4.092019E-01  6.357097E-01 -1.748512E+03 -3.178548E-01 -1.600000E+01 -1.271419E+01
         1   7  4.092019E-01 -6.357097E-01 -4.685125E+02 -3.178548E-01 -1.600000E+01  1.271419E+01
         1   8 -4.092020E-01  6.357096E-01 -1.748512E+03  3.178548E-01 -1.600000E+01  1.271419E+01
         1   9  5.876398E+00  7.551983E+00  7.665341E+02  5.097012E-01  8.117162E+01  3.269364E+01
         1  10 -6.561825E-01  1.019403E+00  7.512914E+02  3.178546E-01 -1.455398E+01  2.038807E+01
         1  11 -4.813279E+00 -3.137693E+00  7.415915E+02 -8.966935E-08 -7.547027E+01 -1.273560E-07
         1  12 -6.561823E-01  1.019403E+00  7.512914E+02 -3.178551E-01 -1.455398E+01 -2.038807E+01
         1  13  5.876398E+00  7.551984E+00  7.665341E+02 -5.097021E-01  8.117162E+01 -3.269364E+01
         1  14  3.664578E+00  4.709489E+00  4.780180E+02  5.097014E-01  7.972560E+01  2.038807E+01
         1  15 -3.001607E+00 -1.956695E+00  4.624636E+02  1.489107E-07 -7.691629E+01  1.324135E-07
         1  16  3.664578E+00  4.709489E+00  4.780180E+02 -5.097019E-01  7.972560E+01 -2.038807E+01
         1  17 -3.308434E-07 -5.167129E-07 -7.253366E-07  5.097016E-01  7.880541E+01  2.207154E-07
         1  18 -3.164961E-07 -2.800608E-09  2.069916E-07  3.178550E-01 -1.692019E+01  2.310046E-07
         1  19 -3.013826E-07  3.303069E-07  3.250924E-08  3.008137E-07 -7.783648E+01  2.441368E-07
         1  20 -2.979808E-07  1.652809E-08 -2.286554E-06 -3.178547E-01 -1.692019E+01  2.524124E-07
         1  21 -3.022277E-07 -4.861796E-07 -4.724365E-06 -5.097017E-01  7.880541E+01  2.550498E-07
         1  22 -3.664578E+00 -4.709490E+00 -4.780180E+02  5.097014E-01  7.972560E+01 -2.038807E+01
         1  23  3.001607E+00  1.956696E+00 -4.624636E+02  1.485792E-07 -7.691629E+01 -4.157510E-08
         1  24 -3.664578E+00 -4.709490E+00 -4.780180E+02 -5.097019E-01  7.972560E+01  2.038807E+01
         1  25 -5.876397E+00 -7.551984E+00 -7.665341E+02  5.097012E-01  8.117162E+01 -3.269364E+01
         1  26  6.561835E-01 -1.019403E+00 -7.512914E+02  3.178546E-01 -1.455398E+01 -2.038807E+01
         1  27  4.813280E+00  3.137694E+00 -7.415915E+02 -9.018254E-08 -7.547027E+01 -4.063613E-07
         1  28  6.561833E-01 -1.019403E+00 -7.512914E+02 -3.178551E-01 -1.455398E+01  2.038807E+01
         1  29 -5.876397E+00 -7.551985E+00 -7.665341E+02 -5.097021E-01  8.117162E+01  3.269364E+01
         1  30  7.188764E+00  5.513177E+00  2.819100E+03 -5.097021E-01 -1.360966E+02  3.269364E+01
         1  31  6.561833E-01 -1.019403E+00  2.803858E+03 -3.178551E-01 -1.455398E+01  2.038807E+01
         1  32 -3.500913E+00 -5.176500E+00  2.794158E+03 -8.533634E-08  6.279134E+01  6.450729E-07
         1  33  6.561835E-01 -1.019403E+00  2.803858E+03  3.178546E-01 -1.455398E+01 -2.038807E+01
         1  34  7.188764E+00  5.513177E+00  2.819100E+03  5.097012E-01 -1.360966E+02 -3.269364E+01
         1  35  4.482982E+00  3.438069E+00  1.758018E+03 -5.097019E-01 -1.375427E+02  2.038807E+01
         1  36 -2.183203E+00 -3.228115E+00  1.742464E+03  1.525023E-07  6.134532E+01  1.815925E-07
         1  37  4.482982E+00  3.438070E+00  1.758018E+03  5.097014E-01 -1.375427E+02 -2.038807E+01
         1  38 -3.368234E-07 -5.144949E-07  4.693271E-06 -5.097017E-01 -1.384628E+02 -1.872322E-07
         1  39 -3.223684E-07 -2.060159E-09  3.585569E-06 -3.178547E-01 -1.692019E+01 -1.898795E-07
         1  40 -3.059508E-07  3.290901E-07  3.161804E-08  3.043869E-07  6.042513E+01 -1.981603E-07
         1  41 -3.030051E-07  1.259225E-08 -5.667672E-06  3.178550E-01 -1.692019E+01 -2.113104E-07
         1  42 -3.059903E-07 -4.910941E-07 -1.014502E-05  5.097016E-01 -1.384628E+02 -2.215861E-07
         1  43 -4.482982E+00 -3.438070E+00 -1.758018E+03 -5.097019E-01 -1.375427E+02 -2.038807E+01
         1  44  2.183203E+00  3.228115E+00 -1.742464E+03  1.540823E-07  6.134532E+01 -9.380744E-08
         1  45 -4.482982E+00 -3.438071E+00 -1.758018E+03  5.097014E-01 -1.375427E+02  2.038807E+01
         1  46 -7.188763E+00 -5.513178E+00 -2.819100E+03 -5.097021E-01 -1.360966E+02 -3.269364E+01
         1  47 -6.561823E-01  1.019403E+00 -2.803858E+03 -3.178551E-01 -1.455398E+01 -2.038807E+01
         1  48  3.500914E+00  5.176500E+00 -2.794158E+03 -8.299864E-08  6.279134E+01  2.034486E-07
         1  49 -6.561825E-01  1.019403E+00 -2.803858E+03  3.178546E-01 -1.455398E+01  2.038807E+01
         1  50 -7.188763E+00 -5.513178E+00 -2.819100E+03  5.097012E-01 -1.360966E+02  3.269364E+01
