
KNOT1
tra         1  0.7508E-04 -0.8575E-05  0.4975E-04
rot       104 -0.2487E-02 -0.7927E-02  0.6840E-03
exp       105  0.4609E-04

KNOT1
tra         2  0.8402E-04 -0.1845E-13  0.8019E-04
rot       118  0.1595E-11 -0.1065E-01 -0.7939E-11
exp       119 -0.3195E-04

KNOT1
tra         9  0.9231E-04 -0.2528E-05  0.9150E-04
rot       138 -0.4495E-03 -0.7834E-02  0.2060E-04
exp       139  0.1069E-03

KNOT1
tra        21  0.7508E-04  0.8575E-05  0.4975E-04
rot       161  0.2487E-02 -0.7927E-02 -0.6840E-03
exp       162  0.4609E-04

KNOT1
tra        25  0.9231E-04  0.2528E-05  0.9150E-04
rot       178  0.4495E-03 -0.7834E-02 -0.2060E-04
exp       179  0.1069E-03

 displacements (vx,vy,vz) for set NALL and time  0.1000000E+01

         1  7.507969E-05 -8.575092E-06  4.974766E-05
         2  8.402028E-05 -1.844858E-14  8.019339E-05
         3  1.613136E-05  7.152724E-14  4.566165E-05
         4  6.080680E-06  7.245691E-06  4.535860E-05
         5  1.466991E-05 -1.033831E-05  5.797213E-06
         6  1.448267E-05 -8.863223E-14  1.297473E-05
         7 -4.439601E-06  2.675628E-15  1.295429E-05
         8 -5.292679E-06 -3.912610E-07  1.102734E-05
         9  9.230860E-05 -2.528270E-06  9.149976E-05
        10 -1.346618E-05  9.682720E-14  5.910435E-05
        11  1.185573E-05  3.411114E-06  4.015514E-05
        12 -1.587317E-05  1.407783E-05  4.644624E-05
        13  4.221927E-05 -1.755840E-05  6.148798E-06
        14  4.826902E-05 -1.106614E-13  1.997353E-05
        15  4.802324E-06  2.908796E-14  3.211056E-05
        16  2.007730E-07  2.058631E-06  2.965995E-05
        17  1.213871E-05 -4.813848E-06  7.386477E-06
        18  1.088966E-05 -2.632214E-14  1.191347E-05
        19 -4.651380E-06  1.255373E-08  1.338983E-05
        20  1.021804E-05 -3.174197E-06  6.672754E-06
        21  7.507969E-05  8.575092E-06  4.974766E-05
        22  6.080681E-06 -7.245691E-06  4.535860E-05
        23  1.466991E-05  1.033831E-05  5.797213E-06
        24 -5.292679E-06  3.912610E-07  1.102734E-05
        25  9.230860E-05  2.528270E-06  9.149976E-05
        26 -1.587317E-05 -1.407783E-05  4.644624E-05
        27  1.185573E-05 -3.411114E-06  4.015514E-05
        28  4.221927E-05  1.755840E-05  6.148798E-06
        29  2.007731E-07 -2.058631E-06  2.965995E-05
        30  1.213871E-05  4.813848E-06  7.386477E-06
        31  1.021804E-05  3.174197E-06  6.672754E-06
        32 -4.651380E-06 -1.255373E-08  1.338983E-05
        33  0.000000E+00  0.000000E+00  0.000000E+00
        34  0.000000E+00  0.000000E+00  0.000000E+00
        35  0.000000E+00  0.000000E+00  0.000000E+00
        36  0.000000E+00  0.000000E+00  0.000000E+00
        37  7.235290E-06 -5.335471E-06  4.477343E-06
        38  6.425729E-06 -4.631088E-14  7.451062E-06
        39 -1.598949E-06 -2.721713E-15  3.272006E-06
        40 -1.485493E-06 -6.499576E-07  1.755644E-06
        41  0.000000E+00  0.000000E+00  0.000000E+00
        42  0.000000E+00  0.000000E+00  0.000000E+00
        43  0.000000E+00  0.000000E+00  0.000000E+00
        44  0.000000E+00  0.000000E+00  0.000000E+00
        45  0.000000E+00  0.000000E+00  0.000000E+00
        46  0.000000E+00  0.000000E+00  0.000000E+00
        47  7.235290E-06  5.335471E-06  4.477343E-06
        48 -1.485493E-06  6.499576E-07  1.755644E-06
        49  0.000000E+00  0.000000E+00  0.000000E+00
        50  0.000000E+00  0.000000E+00  0.000000E+00
        51  0.000000E+00  0.000000E+00  0.000000E+00
        52 -1.352000E-05  2.432257E-14  3.659120E-05
        53 -1.334354E-05  6.191172E-07  3.630805E-05
        54 -1.799047E-05  2.053754E-14  1.761942E-05
        55 -1.770442E-05  1.941480E-06  1.662405E-05
        56 -1.373333E-05  3.289690E-14  3.952415E-05
        57 -1.685155E-05  8.621002E-07  3.780618E-05
        58 -1.459542E-05  2.310453E-06  3.987679E-05
        59 -1.706334E-05  2.407951E-14  2.809002E-05
        60 -1.757111E-05  2.139283E-06  2.806659E-05
        61 -7.081966E-06  1.548696E-14  1.421285E-05
        62 -1.750783E-05  7.199844E-07  1.706210E-05
        63 -7.686036E-06  1.776336E-06  1.343456E-05
        64 -1.334354E-05 -6.191171E-07  3.630805E-05
        65 -1.770442E-05 -1.941480E-06  1.662405E-05
        66 -1.459542E-05 -2.310453E-06  3.987679E-05
        67 -1.685155E-05 -8.621002E-07  3.780618E-05
        68 -1.757111E-05 -2.139283E-06  2.806659E-05
        69 -7.686036E-06 -1.776336E-06  1.343456E-05
        70 -1.750783E-05 -7.199843E-07  1.706210E-05
        71  0.000000E+00  0.000000E+00  0.000000E+00
        72  0.000000E+00  0.000000E+00  0.000000E+00
        73 -9.386852E-06  2.207195E-14  7.084242E-06
        74 -9.700886E-06  2.903815E-06  6.135181E-06
        75  0.000000E+00  0.000000E+00  0.000000E+00
        76  0.000000E+00  0.000000E+00  0.000000E+00
        77  0.000000E+00  0.000000E+00  0.000000E+00
        78  0.000000E+00  0.000000E+00  0.000000E+00
        79 -9.700886E-06 -2.903815E-06  6.135181E-06
        80  0.000000E+00  0.000000E+00  0.000000E+00
        81  0.000000E+00  0.000000E+00  0.000000E+00
        82 -1.155000E-03  3.095422E-14  3.178027E-02
        83 -8.824209E-04 -2.798772E-05  2.910989E-02
        84 -1.326230E-04 -1.250611E-14  9.718738E-03
        85 -1.139398E-03 -5.544935E-06  3.158525E-02
        86 -1.674963E-05 -1.231560E-05  8.102790E-03
        87 -5.860811E-03  5.636379E-13  1.000043E-01
        88 -5.904104E-03  2.446928E-05  1.000028E-01
        89 -3.202259E-03  2.578390E-13  6.361731E-02
        90 -5.891298E-03  1.581577E-05  1.000000E-01
        91 -2.998894E-03 -2.339081E-06  6.182076E-02
        92 -8.824209E-04  2.798772E-05  2.910989E-02
        93 -1.674963E-05  1.231560E-05  8.102790E-03
        94 -1.139398E-03  5.544935E-06  3.158525E-02
        95 -5.904104E-03 -2.446928E-05  1.000028E-01
        96 -2.998894E-03  2.339081E-06  6.182076E-02
        97 -5.891298E-03 -1.581577E-05  1.000000E-01

 stresses (elem, integ.pnt.,sxx,syy,szz,sxy,sxz,syz) for set EALL and time  0.1000000E+01

         9   1  1.922101E+01  2.360804E+00  1.275683E+00 -1.491956E+00 -1.730004E+01 -5.301837E+00
         9   2  1.820918E+01 -9.824936E-02 -1.198874E+01  1.650858E+00 -1.516249E+01  9.237078E-01
         9   3  1.614189E+01  1.616572E+00 -1.029157E+01  4.561259E+00 -1.568157E+01  7.490372E+00
         9   4 -1.030532E+01 -1.835356E+00 -7.022691E+00  1.418765E+00  1.661957E+00 -4.050946E+00
         9   5 -1.342804E+01 -5.785516E+00 -2.019141E+01  2.277301E+00  2.501463E+00 -6.343209E-01
         9   6 -1.359571E+01 -3.844213E+00 -1.668165E+01  3.039876E+00  3.330126E+00  3.123095E+00
         9   7 -8.792229E-01  3.275271E+00 -8.347360E-01  9.346214E-01  2.056830E+01 -3.251580E+00
         9   8 -4.126034E+00 -1.314774E+00 -1.305764E+01  4.521065E-01  2.036642E+01 -2.645164E+00
         9   9 -4.085622E-01  1.703942E+00 -6.882242E+00  1.011701E-02  2.280050E+01 -1.698262E+00
         9  10  1.971313E+01  3.227786E+00  1.186273E+01 -1.888104E+00 -1.123173E+01 -7.925802E-01
         9  11  2.291010E+01  3.980719E+00  7.107185E+00  6.523862E-02 -8.892859E+00  1.572967E+00
         9  12  2.108931E+01  4.943348E+00  8.067101E+00  1.786122E+00 -1.035351E+01  4.143458E+00
         9  13 -9.138382E+00 -2.049438E+00  3.595567E+00  8.600341E-01  1.305451E-01 -9.918696E-01
         9  14 -8.924273E+00 -2.990459E+00 -2.051348E+00  1.167714E+00  1.081626E+00  2.633727E-01
         9  15 -9.718607E+00 -2.004279E+00 -2.656001E-01  1.379377E+00  8.774843E-01  1.723305E+00
         9  16  2.346678E+00  5.268308E+00  1.121048E+01  7.813508E-01  1.143627E+01 -1.387550E+00
         9  17  1.563554E+00  3.483688E+00  5.521961E+00  3.864883E-01  1.125602E+01 -1.243082E+00
         9  18  3.778622E+00  5.343278E+00  8.984427E+00  3.209675E-02  1.256433E+01 -8.940269E-01
         9  19  1.542179E+01  2.150891E+00  8.418423E+00 -2.017529E+00 -5.533721E+00  1.729410E+00
         9  20  2.211635E+01  5.403651E+00  1.051314E+01 -1.253911E+00 -2.793664E+00  7.402339E-01
         9  21  1.983047E+01  4.903138E+00  9.075172E+00 -7.226619E-01 -4.996978E+00 -1.805433E-01
         9  22 -1.352784E+01 -5.985769E+00 -5.875914E-01  3.694330E-01 -1.774651E+00  5.542501E-01
         9  23 -1.068889E+01 -4.629789E+00 -3.712423E-01  1.263594E-01 -5.136750E-01  1.540620E-01
         9  24 -1.282175E+01 -5.310571E+00 -1.971422E+00 -2.127177E-01 -1.552212E+00 -1.778976E-01
         9  25 -7.384759E-01  1.769207E+00  7.696734E+00  4.968243E-01  1.926784E+00 -5.616924E-01
         9  26  2.300605E-01  2.077822E+00  6.883858E+00  1.899279E-01  1.965231E+00 -3.730446E-01
         9  27  2.324691E-01  2.066837E+00  5.971849E+00 -7.652035E-02  2.346384E+00 -1.161603E-01
        10   1  1.614189E+01  1.616572E+00 -1.029157E+01 -4.561260E+00 -1.568157E+01 -7.490373E+00
        10   2  1.820918E+01 -9.824932E-02 -1.198874E+01 -1.650858E+00 -1.516249E+01 -9.237077E-01
        10   3  1.922101E+01  2.360804E+00  1.275683E+00  1.491956E+00 -1.730004E+01  5.301837E+00
        10   4 -1.359571E+01 -3.844213E+00 -1.668165E+01 -3.039876E+00  3.330126E+00 -3.123095E+00
        10   5 -1.342804E+01 -5.785516E+00 -2.019141E+01 -2.277301E+00  2.501463E+00  6.343209E-01
        10   6 -1.030532E+01 -1.835357E+00 -7.022691E+00 -1.418765E+00  1.661957E+00  4.050946E+00
        10   7 -4.085622E-01  1.703942E+00 -6.882242E+00 -1.011697E-02  2.280050E+01  1.698262E+00
        10   8 -4.126034E+00 -1.314774E+00 -1.305764E+01 -4.521065E-01  2.036642E+01  2.645164E+00
        10   9 -8.792229E-01  3.275271E+00 -8.347361E-01 -9.346214E-01  2.056830E+01  3.251580E+00
        10  10  2.108931E+01  4.943348E+00  8.067101E+00 -1.786122E+00 -1.035351E+01 -4.143458E+00
        10  11  2.291010E+01  3.980719E+00  7.107185E+00 -6.523862E-02 -8.892859E+00 -1.572967E+00
        10  12  1.971313E+01  3.227787E+00  1.186273E+01  1.888104E+00 -1.123173E+01  7.925800E-01
        10  13 -9.718607E+00 -2.004279E+00 -2.656001E-01 -1.379376E+00  8.774843E-01 -1.723305E+00
        10  14 -8.924273E+00 -2.990459E+00 -2.051348E+00 -1.167714E+00  1.081626E+00 -2.633726E-01
        10  15 -9.138382E+00 -2.049438E+00  3.595567E+00 -8.600341E-01  1.305451E-01  9.918696E-01
        10  16  3.778622E+00  5.343278E+00  8.984427E+00 -3.209672E-02  1.256433E+01  8.940268E-01
        10  17  1.563554E+00  3.483688E+00  5.521961E+00 -3.864883E-01  1.125602E+01  1.243082E+00
        10  18  2.346678E+00  5.268309E+00  1.121048E+01 -7.813508E-01  1.143627E+01  1.387550E+00
        10  19  1.983047E+01  4.903138E+00  9.075172E+00  7.226619E-01 -4.996978E+00  1.805433E-01
        10  20  2.211635E+01  5.403651E+00  1.051314E+01  1.253911E+00 -2.793664E+00 -7.402338E-01
        10  21  1.542179E+01  2.150891E+00  8.418423E+00  2.017529E+00 -5.533721E+00 -1.729409E+00
        10  22 -1.282175E+01 -5.310571E+00 -1.971422E+00  2.127177E-01 -1.552212E+00  1.778976E-01
        10  23 -1.068889E+01 -4.629789E+00 -3.712423E-01 -1.263594E-01 -5.136750E-01 -1.540620E-01
        10  24 -1.352784E+01 -5.985769E+00 -5.875914E-01 -3.694330E-01 -1.774651E+00 -5.542501E-01
        10  25  2.324691E-01  2.066837E+00  5.971849E+00  7.652037E-02  2.346384E+00  1.161603E-01
        10  26  2.300605E-01  2.077822E+00  6.883858E+00 -1.899279E-01  1.965231E+00  3.730446E-01
        10  27 -7.384759E-01  1.769207E+00  7.696734E+00 -4.968244E-01  1.926784E+00  5.616924E-01
        11   1  5.496469E+00 -1.710605E+00  5.774269E-01 -1.000552E-01  3.407941E-01  1.868919E+00
        11   2  5.705851E+00 -1.063971E+00  1.220193E+00 -5.336690E-01  1.055651E+00  2.166987E-01
        11   3  6.489653E+00 -6.721042E-01  4.391139E-01 -1.033001E+00  1.627695E+00 -1.410236E+00
        11   4  4.648213E+00  7.259813E-01  2.973001E+00  1.388884E-01 -9.086865E-01  6.242938E-01
        11   5  5.076994E+00  1.292943E+00  3.349801E+00 -1.889216E-01 -3.135889E-01 -6.667631E-02
        11   6  5.383153E+00  1.306342E+00  2.003921E+00 -5.713688E-01 -1.164799E-01 -7.323400E-01
        11   7 -5.420781E-01  2.253741E-01  3.184973E+00  5.935248E-02 -1.836040E+00 -5.020057E-01
        11   8  1.704381E-02  6.744327E-01  3.257592E+00  1.784643E-03 -1.412402E+00 -2.316486E-01
        11   9 -2.434226E-01  2.711915E-01  1.308775E+00 -9.935419E-02 -1.641864E+00  6.401422E-02
        11  10  5.449261E+00 -5.853755E-01 -5.488338E-01 -5.313342E-01  1.022749E+00  1.081636E+00
        11  11  5.075561E+00 -3.831658E-01 -2.356155E-01 -5.118513E-01  1.500275E+00  1.645588E-01
        11  12  5.658941E+00 -5.310918E-02 -4.533007E-01 -5.580577E-01  2.034104E+00 -7.382669E-01
        11  13  4.468702E+00  5.324521E-01  5.737040E-01 -1.114578E-01 -1.564399E-01  3.236903E-01
        11  14  4.454762E+00  7.909405E-01  8.382319E-01 -1.636853E-01  3.144468E-01 -5.171027E-02
        11  15  4.700859E+00  8.785357E-01  2.730936E-01 -2.705383E-01  5.864650E-01 -4.128517E-01
        11  16 -6.075895E-01 -7.115750E-01 -2.409602E-01 -3.552833E-02 -1.013456E+00 -3.675686E-01
        11  17 -3.508072E-01 -4.349910E-01 -6.329134E-02  4.989414E-03 -6.009166E-01 -2.012657E-01
        11  18 -5.309832E-01 -6.280185E-01 -1.014016E+00  1.938692E-03 -6.423780E-01 -2.070225E-02
        11  19  6.973358E+00  2.188264E+00  1.914121E+00 -1.097604E+00  1.456543E+00  2.502031E-01
        11  20  5.885029E+00  1.814477E+00  1.590901E+00 -6.249842E-01  1.683530E+00  4.664370E-02
        11  21  6.136478E+00  1.951204E+00  1.629718E+00 -2.180486E-01  2.165962E+00 -1.537006E-01
        11  22  5.893003E+00  2.062975E+00  1.796163E+00 -4.835721E-01  3.475661E-01  6.662567E-02
        11  23  5.304785E+00  1.881445E+00  1.641520E+00 -2.601932E-01  6.810489E-01 -1.484548E-02
        11  24  5.359306E+00  1.911715E+00  1.550190E+00 -9.143792E-02  1.014791E+00 -9.310009E-02
        11  25  9.634173E-01  1.513611E-01 -1.238499E-02 -2.389437E-01 -4.391970E-01 -1.019392E-01
        11  26  7.862859E-01  1.239207E-01 -3.660507E-02 -1.003320E-01 -5.094065E-02 -6.130935E-02
        11  27  5.548910E-01  9.584594E-03 -2.962116E-01 -5.290746E-03  8.242114E-02 -1.746324E-02
        12   1  6.489653E+00 -6.721042E-01  4.391139E-01  1.033001E+00  1.627695E+00  1.410236E+00
        12   2  5.705852E+00 -1.063971E+00  1.220193E+00  5.336689E-01  1.055651E+00 -2.166987E-01
        12   3  5.496469E+00 -1.710605E+00  5.774269E-01  1.000552E-01  3.407941E-01 -1.868919E+00
        12   4  5.383153E+00  1.306342E+00  2.003921E+00  5.713688E-01 -1.164799E-01  7.323400E-01
        12   5  5.076994E+00  1.292943E+00  3.349801E+00  1.889216E-01 -3.135889E-01  6.667632E-02
        12   6  4.648213E+00  7.259812E-01  2.973001E+00 -1.388883E-01 -9.086865E-01 -6.242938E-01
        12   7 -2.434226E-01  2.711915E-01  1.308775E+00  9.935419E-02 -1.641864E+00 -6.401422E-02
        12   8  1.704381E-02  6.744327E-01  3.257592E+00 -1.784646E-03 -1.412402E+00  2.316486E-01
        12   9 -5.420781E-01  2.253741E-01  3.184973E+00 -5.935247E-02 -1.836040E+00  5.020057E-01
        12  10  5.658941E+00 -5.310917E-02 -4.533007E-01  5.580576E-01  2.034104E+00  7.382669E-01
        12  11  5.075561E+00 -3.831658E-01 -2.356155E-01  5.118513E-01  1.500275E+00 -1.645588E-01
        12  12  5.449261E+00 -5.853755E-01 -5.488338E-01  5.313343E-01  1.022749E+00 -1.081636E+00
        12  13  4.700859E+00  8.785357E-01  2.730936E-01  2.705383E-01  5.864650E-01  4.128517E-01
        12  14  4.454762E+00  7.909405E-01  8.382318E-01  1.636853E-01  3.144468E-01  5.171027E-02
        12  15  4.468702E+00  5.324521E-01  5.737040E-01  1.114578E-01 -1.564399E-01 -3.236903E-01
        12  16 -5.309832E-01 -6.280184E-01 -1.014016E+00 -1.938694E-03 -6.423780E-01  2.070225E-02
        12  17 -3.508072E-01 -4.349910E-01 -6.329136E-02 -4.989416E-03 -6.009166E-01  2.012657E-01
        12  18 -6.075895E-01 -7.115750E-01 -2.409602E-01  3.552833E-02 -1.013456E+00  3.675685E-01
        12  19  6.136478E+00  1.951204E+00  1.629718E+00  2.180486E-01  2.165962E+00  1.537006E-01
        12  20  5.885029E+00  1.814477E+00  1.590901E+00  6.249842E-01  1.683530E+00 -4.664370E-02
        12  21  6.973358E+00  2.188264E+00  1.914121E+00  1.097604E+00  1.456543E+00 -2.502030E-01
        12  22  5.359306E+00  1.911715E+00  1.550190E+00  9.143791E-02  1.014791E+00  9.310009E-02
        12  23  5.304785E+00  1.881445E+00  1.641520E+00  2.601931E-01  6.810490E-01  1.484548E-02
        12  24  5.893003E+00  2.062975E+00  1.796163E+00  4.835721E-01  3.475661E-01 -6.662567E-02
        12  25  5.548910E-01  9.584594E-03 -2.962116E-01  5.290741E-03  8.242114E-02  1.746324E-02
        12  26  7.862859E-01  1.239207E-01 -3.660508E-02  1.003320E-01 -5.094064E-02  6.130935E-02
        12  27  9.634173E-01  1.513610E-01 -1.238499E-02  2.389437E-01 -4.391970E-01  1.019392E-01
        13   1  3.620153E+00  2.779216E+00 -1.418390E+00  2.176055E-01 -4.182570E+00  6.122913E-01
        13   2  5.971791E+00  3.970043E+00  5.876270E-01 -3.610491E-01 -6.399238E+00 -7.162488E-01
        13   3  6.821727E+00  3.570051E+00 -1.207773E+00 -8.859814E-01 -7.248797E+00 -2.164186E+00
        13   4 -3.509234E+00 -1.437947E+00 -3.643876E+00  2.989359E-01 -3.457641E-01  2.149669E-01
        13   5 -2.941141E+00 -5.494925E-01 -1.898439E+00 -3.187907E-03 -1.441877E+00 -2.650293E-01
        13   6 -3.455496E+00 -1.072397E+00 -3.775004E+00 -3.425877E-01 -1.777090E+00 -8.644768E-01
        13   7 -3.268801E-01 -5.018746E-01 -1.229552E+00  1.908991E-01  3.586741E+00 -3.227632E-01
        13   8 -4.685466E-01  5.441643E-01  7.155236E-01 -3.151645E-02  3.614549E+00  4.575915E-02
        13   9 -1.273222E+00  3.585741E-01 -7.818136E-01 -3.822061E-01  3.797166E+00  2.948046E-01
        13  10  2.996714E+00  1.733471E+00  1.380738E-01  1.658182E-01  1.108564E-01  4.009019E-01
        13  11  4.330909E+00  2.297411E+00  6.058848E-01 -1.525392E-01 -1.197553E+00 -3.532630E-01
        13  12  5.072315E+00  2.179265E+00 -6.071818E-01 -4.171996E-01 -1.258946E+00 -1.135892E+00
        13  13 -3.906752E+00 -1.071354E+00 -1.844398E+00  2.803064E-02  1.091710E+00  2.592386E-01
        13  14 -3.935018E+00 -8.924847E-01 -1.544767E+00 -6.034923E-02  4.443547E-01 -5.545601E-02
        13  15 -4.136830E+00 -1.216099E+00 -2.746495E+00 -1.860099E-01  4.379977E-01 -3.986400E-01
        13  16 -7.950893E-01  5.876357E-01  5.169129E-01  7.480804E-03  2.168440E+00 -1.932435E-02
        13  17 -1.112422E+00  8.414014E-01  1.108383E+00 -4.776931E-02  2.185604E+00  1.054351E-01
        13  18 -1.183956E+00  7.723846E-01  3.780821E-01 -2.312842E-01  2.237864E+00  2.016925E-01
        13  19  2.728115E+00  1.473143E+00  2.089582E+00 -2.720194E-02  4.508907E+00  2.264541E-02
        13  20  3.274322E+00  1.639278E+00  1.553801E+00 -8.523904E-02  3.947931E+00  9.248270E-03
        13  21  4.136733E+00  2.032171E+00  1.457924E+00 -8.957713E-02  4.514123E+00  5.835025E-02
        13  22 -4.199967E+00 -5.019987E-01  9.983198E-02 -2.234897E-01  2.633676E+00 -1.607520E-02
        13  23 -4.595474E+00 -8.036507E-01 -5.118926E-01 -9.812360E-02  2.274376E+00  9.205896E-04
        13  24 -4.255610E+00 -6.988800E-01 -5.042268E-01 -1.004091E-02  2.436261E+00  8.040265E-02
        13  25 -1.408385E+00  1.297634E+00  2.158597E+00  4.081389E-03  8.545427E-01 -1.881597E-01
        13  26 -1.672350E+00  9.881667E-01  1.930884E+00  1.160101E-01  7.004423E-01 -1.407958E-01
        13  27 -7.816645E-01  1.264788E+00  2.502134E+00  9.967526E-02  4.616291E-01 -3.094892E-02
        14   1  6.821727E+00  3.570051E+00 -1.207773E+00  8.859815E-01 -7.248797E+00  2.164186E+00
        14   2  5.971791E+00  3.970043E+00  5.876269E-01  3.610491E-01 -6.399238E+00  7.162488E-01
        14   3  3.620153E+00  2.779216E+00 -1.418390E+00 -2.176055E-01 -4.182570E+00 -6.122912E-01
        14   4 -3.455496E+00 -1.072397E+00 -3.775004E+00  3.425877E-01 -1.777090E+00  8.644768E-01
        14   5 -2.941141E+00 -5.494924E-01 -1.898439E+00  3.187911E-03 -1.441877E+00  2.650292E-01
        14   6 -3.509234E+00 -1.437947E+00 -3.643876E+00 -2.989359E-01 -3.457641E-01 -2.149668E-01
        14   7 -1.273222E+00  3.585742E-01 -7.818136E-01  3.822061E-01  3.797166E+00 -2.948046E-01
        14   8 -4.685467E-01  5.441643E-01  7.155236E-01  3.151645E-02  3.614549E+00 -4.575916E-02
        14   9 -3.268801E-01 -5.018745E-01 -1.229551E+00 -1.908990E-01  3.586741E+00  3.227632E-01
        14  10  5.072315E+00  2.179265E+00 -6.071818E-01  4.171996E-01 -1.258946E+00  1.135892E+00
        14  11  4.330909E+00  2.297411E+00  6.058848E-01  1.525392E-01 -1.197553E+00  3.532630E-01
        14  12  2.996714E+00  1.733471E+00  1.380738E-01 -1.658183E-01  1.108563E-01 -4.009018E-01
        14  13 -4.136830E+00 -1.216099E+00 -2.746495E+00  1.860099E-01  4.379977E-01  3.986400E-01
        14  14 -3.935018E+00 -8.924847E-01 -1.544767E+00  6.034923E-02  4.443547E-01  5.545601E-02
        14  15 -3.906752E+00 -1.071353E+00 -1.844398E+00 -2.803064E-02  1.091710E+00 -2.592386E-01
        14  16 -1.183956E+00  7.723846E-01  3.780821E-01  2.312842E-01  2.237864E+00 -2.016925E-01
        14  17 -1.112422E+00  8.414014E-01  1.108383E+00  4.776931E-02  2.185604E+00 -1.054351E-01
        14  18 -7.950894E-01  5.876357E-01  5.169129E-01 -7.480777E-03  2.168440E+00  1.932435E-02
        14  19  4.136733E+00  2.032171E+00  1.457924E+00  8.957714E-02  4.514123E+00 -5.835026E-02
        14  20  3.274322E+00  1.639278E+00  1.553801E+00  8.523904E-02  3.947931E+00 -9.248265E-03
        14  21  2.728115E+00  1.473143E+00  2.089582E+00  2.720190E-02  4.508907E+00 -2.264540E-02
        14  22 -4.255610E+00 -6.988800E-01 -5.042268E-01  1.004091E-02  2.436261E+00 -8.040265E-02
        14  23 -4.595474E+00 -8.036507E-01 -5.118926E-01  9.812360E-02  2.274376E+00 -9.205843E-04
        14  24 -4.199968E+00 -5.019987E-01  9.983198E-02  2.234896E-01  2.633676E+00  1.607521E-02
        14  25 -7.816645E-01  1.264788E+00  2.502134E+00 -9.967526E-02  4.616291E-01  3.094891E-02
        14  26 -1.672350E+00  9.881668E-01  1.930884E+00 -1.160101E-01  7.004423E-01  1.407958E-01
        14  27 -1.408385E+00  1.297634E+00  2.158597E+00 -4.081372E-03  8.545427E-01  1.881597E-01
        15   1 -3.535010E+00 -1.124536E+00  1.548341E-01 -6.485574E-02  3.523337E+00 -3.495098E-03
        15   2 -3.322011E+00 -1.089432E+00 -5.433238E-01 -9.983901E-04  3.662520E+00  1.438772E-01
        15   3 -2.887953E+00 -7.445297E-01 -4.299406E-01  3.253402E-02  3.540930E+00  3.701887E-01
        15   4 -2.834084E+00  3.663352E-01  1.352793E+00 -2.821316E-01  1.771604E+00 -3.417857E-02
        15   5 -2.863385E+00  1.727401E-01  8.186942E-01 -1.289003E-01  1.760323E+00  3.452613E-02
        15   6 -2.704417E+00  2.748797E-01  1.082107E+00  2.845680E-02  1.597756E+00  1.821717E-01
        15   7 -5.002221E+00  1.354939E-01  1.173533E+00 -6.164423E-01  1.105361E-01 -1.823183E-01
        15   8 -5.358027E+00 -3.229104E-01  7.674189E-01 -2.986812E-01  5.004672E-05 -1.922848E-01
        15   9 -5.558345E+00 -4.996271E-01  1.144789E+00  5.765177E-02 -1.522323E-01 -1.233114E-01
        15  10 -2.086182E+00 -5.719077E-01  5.881251E-01 -7.962054E-03  1.613749E+00  1.953451E-01
        15  11 -2.021602E+00 -5.801093E-01  1.568970E-01  4.744390E-02  1.894170E+00  1.626923E-01
        15  12 -1.900221E+00 -4.427825E-01  1.539344E-01  7.252134E-02  1.923171E+00  1.745229E-01
        15  13 -2.866806E+00  9.491374E-02  8.585481E-01  1.417584E-01  9.122970E-01  1.829915E-01
        15  14 -2.807769E+00  1.398193E-02  5.759134E-01  9.793626E-02  1.058692E+00  1.060003E-01
        15  15 -2.724727E+00  6.451902E-02  7.074985E-01  5.823913E-02  1.063172E+00  7.349287E-02
        15  16 -6.403847E+00 -6.969424E-01 -1.356091E-01  1.503412E-01  3.015518E-01  1.044431E-01
        15  17 -6.434574E+00 -8.867059E-01 -3.057397E-01  8.245875E-02  3.651829E-01 -1.688457E-02
        15  18 -6.474082E+00 -9.590535E-01 -7.569302E-02  5.315339E-02  3.964016E-01 -9.372760E-02
        15  19 -1.039750E+00 -3.499724E-01  1.047996E-02 -3.396446E-02  7.185667E-02  8.850497E-02
        15  20 -1.112183E+00 -3.900521E-01 -1.271680E-01  1.299485E-02  4.186592E-01  5.506681E-02
        15  21 -1.292070E+00 -4.488697E-01 -2.198228E-01  2.962487E-02  5.234087E-01  3.165521E-02
        15  22 -3.570883E+00 -1.134548E+00 -9.156005E-01  5.576083E-01  4.207381E-01  8.683595E-02
        15  23 -3.412084E+00 -1.091388E+00 -9.201110E-01  3.167345E-01  6.499507E-01  4.340268E-02
        15  24 -3.393540E+00 -1.081023E+00 -8.936901E-01  7.998521E-02  7.466230E-01  9.993053E-03
        15  25 -8.745649E+00 -3.114754E+00 -2.993559E+00  9.839175E-01  8.602901E-01  7.025967E-02
        15  26 -8.439871E+00 -3.024462E+00 -2.901033E+00  5.304063E-01  1.023180E+00  1.682454E-02
        15  27 -8.307133E+00 -2.981014E+00 -2.791629E+00  1.154689E-01  1.163035E+00 -2.658652E-02
        16   1 -2.887953E+00 -7.445297E-01 -4.299406E-01 -3.253401E-02  3.540930E+00 -3.701887E-01
        16   2 -3.322011E+00 -1.089432E+00 -5.433238E-01  9.983883E-04  3.662520E+00 -1.438772E-01
        16   3 -3.535010E+00 -1.124536E+00  1.548341E-01  6.485573E-02  3.523337E+00  3.495087E-03
        16   4 -2.704417E+00  2.748797E-01  1.082107E+00 -2.845680E-02  1.597756E+00 -1.821717E-01
        16   5 -2.863385E+00  1.727401E-01  8.186942E-01  1.289003E-01  1.760323E+00 -3.452612E-02
        16   6 -2.834084E+00  3.663352E-01  1.352793E+00  2.821315E-01  1.771604E+00  3.417857E-02
        16   7 -5.558345E+00 -4.996271E-01  1.144789E+00 -5.765177E-02 -1.522323E-01  1.233114E-01
        16   8 -5.358027E+00 -3.229104E-01  7.674189E-01  2.986812E-01  5.004519E-05  1.922848E-01
        16   9 -5.002221E+00  1.354939E-01  1.173533E+00  6.164423E-01  1.105361E-01  1.823183E-01
        16  10 -1.900221E+00 -4.427825E-01  1.539344E-01 -7.252134E-02  1.923171E+00 -1.745229E-01
        16  11 -2.021602E+00 -5.801093E-01  1.568970E-01 -4.744390E-02  1.894170E+00 -1.626923E-01
        16  12 -2.086182E+00 -5.719077E-01  5.881251E-01  7.962051E-03  1.613749E+00 -1.953451E-01
        16  13 -2.724727E+00  6.451902E-02  7.074985E-01 -5.823913E-02  1.063172E+00 -7.349287E-02
        16  14 -2.807769E+00  1.398192E-02  5.759134E-01 -9.793626E-02  1.058692E+00 -1.060003E-01
        16  15 -2.866806E+00  9.491372E-02  8.585481E-01 -1.417584E-01  9.122971E-01 -1.829915E-01
        16  16 -6.474082E+00 -9.590535E-01 -7.569302E-02 -5.315339E-02  3.964016E-01  9.372760E-02
        16  17 -6.434574E+00 -8.867059E-01 -3.057397E-01 -8.245874E-02  3.651829E-01  1.688457E-02
        16  18 -6.403847E+00 -6.969424E-01 -1.356091E-01 -1.503412E-01  3.015518E-01 -1.044431E-01
        16  19 -1.292070E+00 -4.488697E-01 -2.198228E-01 -2.962488E-02  5.234087E-01 -3.165521E-02
        16  20 -1.112183E+00 -3.900521E-01 -1.271681E-01 -1.299485E-02  4.186592E-01 -5.506681E-02
        16  21 -1.039750E+00 -3.499724E-01  1.047996E-02  3.396446E-02  7.185667E-02 -8.850497E-02
        16  22 -3.393540E+00 -1.081023E+00 -8.936901E-01 -7.998521E-02  7.466230E-01 -9.993052E-03
        16  23 -3.412084E+00 -1.091388E+00 -9.201110E-01 -3.167345E-01  6.499507E-01 -4.340268E-02
        16  24 -3.570883E+00 -1.134548E+00 -9.156005E-01 -5.576083E-01  4.207381E-01 -8.683595E-02
        16  25 -8.307133E+00 -2.981014E+00 -2.791629E+00 -1.154689E-01  1.163035E+00  2.658652E-02
        16  26 -8.439871E+00 -3.024462E+00 -2.901033E+00 -5.304063E-01  1.023180E+00 -1.682454E-02
        16  27 -8.745649E+00 -3.114754E+00 -2.993559E+00 -9.839175E-01  8.602901E-01 -7.025967E-02
         1   1 -7.286104E+01 -7.392360E+01 -1.944369E+02  6.710497E+00  7.241910E+01 -1.688297E+00
         1   2 -9.345142E+01 -9.993641E+01 -2.463485E+02 -2.989837E+00  8.938022E+01 -1.362983E+00
         1   3  6.253646E+01  6.034758E+01  1.198653E+02 -4.734464E+00 -4.212393E+01 -3.053990E+00
         1   4  7.708248E+01  7.171638E+01  1.437362E+02 -1.352864E+00 -5.200839E+01 -3.327328E-02
         1   5  7.299000E+01  6.551284E+01  1.627869E+02  7.702738E+00  7.347671E+01 -7.960572E+00
         1   6  9.293641E+01  9.115239E+01  1.971002E+02 -3.759861E+00  8.939504E+01  1.192864E+01
         1   7 -6.280955E+01 -5.604366E+01 -1.420200E+02 -4.598508E+00 -4.167384E+01 -4.658165E+00
         1   8 -7.709816E+01 -7.023041E+01 -1.780803E+02 -1.187082E+00 -5.037390E+01 -2.116188E+00
         2   1 -4.613286E+01 -4.556453E+01 -1.101938E+02  3.257002E+00  2.391724E+01 -1.339837E+00
         2   2 -5.584015E+01 -5.431047E+01 -1.344682E+02  2.185980E+00  3.010118E+01 -6.951585E-01
         2   3  1.304751E+01  2.724274E+01  8.098011E+01 -2.362420E+00 -5.560175E+00 -3.646682E-01
         2   4  1.582831E+01  3.583675E+01  1.009448E+02  4.593573E-01 -7.086866E+00 -8.268026E-01
         2   5  4.624032E+01  4.815560E+01  1.052730E+02  3.072251E+00  2.539319E+01  1.818110E+00
         2   6  5.578442E+01  5.635898E+01  1.285996E+02  2.473006E+00  3.039578E+01 -2.676717E+00
         2   7 -1.305020E+01 -2.783149E+01 -8.295317E+01 -2.348295E+00 -5.654574E+00 -1.024002E-01
         2   8 -1.582741E+01 -3.450261E+01 -1.014790E+02  3.473921E-01 -7.014706E+00  8.132585E-01
         3   1 -9.345142E+01 -9.993641E+01 -2.463485E+02  2.989837E+00  8.938022E+01  1.362983E+00
         3   2 -7.286104E+01 -7.392360E+01 -1.944369E+02 -6.710497E+00  7.241910E+01  1.688298E+00
         3   3  7.708248E+01  7.171638E+01  1.437362E+02  1.352864E+00 -5.200839E+01  3.327318E-02
         3   4  6.253646E+01  6.034758E+01  1.198653E+02  4.734464E+00 -4.212393E+01  3.053990E+00
         3   5  9.293641E+01  9.115239E+01  1.971002E+02  3.759861E+00  8.939504E+01 -1.192864E+01
         3   6  7.299000E+01  6.551284E+01  1.627869E+02 -7.702738E+00  7.347671E+01  7.960571E+00
         3   7 -7.709816E+01 -7.023041E+01 -1.780803E+02  1.187082E+00 -5.037390E+01  2.116188E+00
         3   8 -6.280955E+01 -5.604366E+01 -1.420200E+02  4.598508E+00 -4.167384E+01  4.658165E+00
         4   1 -5.584015E+01 -5.431047E+01 -1.344682E+02 -2.185980E+00  3.010118E+01  6.951585E-01
         4   2 -4.613286E+01 -4.556453E+01 -1.101938E+02 -3.257002E+00  2.391724E+01  1.339837E+00
         4   3  1.582831E+01  3.583675E+01  1.009448E+02 -4.593573E-01 -7.086866E+00  8.268025E-01
         4   4  1.304751E+01  2.724274E+01  8.098011E+01  2.362420E+00 -5.560175E+00  3.646683E-01
         4   5  5.578442E+01  5.635898E+01  1.285996E+02 -2.473006E+00  3.039578E+01  2.676717E+00
         4   6  4.624032E+01  4.815560E+01  1.052730E+02 -3.072251E+00  2.539319E+01 -1.818110E+00
         4   7 -1.582741E+01 -3.450261E+01 -1.014790E+02 -3.473922E-01 -7.014706E+00 -8.132584E-01
         4   8 -1.305020E+01 -2.783149E+01 -8.295317E+01  2.348295E+00 -5.654575E+00  1.024001E-01
         5   1  8.433569E+02  2.746922E+02  2.759205E+02 -2.330600E+01  2.341272E+01  3.189472E+01
         5   2  8.786722E+02  3.454906E+02  3.142936E+02 -2.105927E+01  4.378850E+01 -2.188431E+01
         5   3  6.141422E+02  4.118954E+01  7.070804E+00 -3.244817E+01  6.705839E+01 -2.024644E+00
         5   4  5.405870E+02  1.241354E+02 -3.148485E+00 -2.157874E+01  6.639550E+01  6.406219E+00
         5   5 -8.076175E+02 -2.808013E+02 -2.840411E+02  3.134536E+01 -1.331205E+01  3.273574E+01
         5   6 -9.148955E+02 -3.630629E+02 -3.210992E+02  2.281550E+01  2.764270E+00 -2.026428E+01
         5   7 -5.813783E+02 -4.622715E+01 -3.475419E+00  3.125828E+01 -3.743184E+01  4.277782E+00
         5   8 -5.752056E+02 -1.377445E+02  8.414164E+00  9.282503E+00 -4.023475E+01  8.521094E+00
         6   1  3.867438E+02 -4.346360E+01 -7.183760E+01  2.302171E+01  6.893633E+01 -1.732952E+00
         6   2  3.563452E+02  4.532908E+01 -7.280959E+01  1.052391E+01  5.945276E+01  4.826275E+00
         6   3  1.066874E+02  1.606663E+01  2.791733E+01  2.277941E+01  3.248240E+01  7.336975E+00
         6   4  8.706242E+01  2.336679E+01  2.594230E+01  2.597375E+01  2.275671E+01  6.750207E+00
         6   5 -3.669836E+02  3.826536E+01  7.755947E+01 -3.592219E+01 -3.607419E+01 -8.516303E+00
         6   6 -3.811342E+02 -5.282385E+01  7.585501E+01 -9.921542E+00 -3.666417E+01  1.473080E+00
         6   7 -1.048562E+02 -8.644065E+00 -1.733657E+01 -2.993469E+01  2.705135E+00 -9.718018E-01
         6   8 -9.699859E+01 -4.666197E+00 -2.009044E+01 -3.701282E+01 -3.706914E+00 -2.721598E+00
         7   1  8.786722E+02  3.454906E+02  3.142936E+02  2.105927E+01  4.378850E+01  2.188431E+01
         7   2  8.433569E+02  2.746922E+02  2.759205E+02  2.330600E+01  2.341272E+01 -3.189472E+01
         7   3  5.405870E+02  1.241354E+02 -3.148484E+00  2.157874E+01  6.639550E+01 -6.406219E+00
         7   4  6.141422E+02  4.118954E+01  7.070803E+00  3.244817E+01  6.705839E+01  2.024644E+00
         7   5 -9.148955E+02 -3.630629E+02 -3.210992E+02 -2.281550E+01  2.764271E+00  2.026428E+01
         7   6 -8.076175E+02 -2.808013E+02 -2.840411E+02 -3.134536E+01 -1.331205E+01 -3.273574E+01
         7   7 -5.752056E+02 -1.377445E+02  8.414164E+00 -9.282502E+00 -4.023474E+01 -8.521094E+00
         7   8 -5.813783E+02 -4.622715E+01 -3.475419E+00 -3.125828E+01 -3.743184E+01 -4.277782E+00
         8   1  3.563452E+02  4.532908E+01 -7.280959E+01 -1.052391E+01  5.945275E+01 -4.826275E+00
         8   2  3.867438E+02 -4.346360E+01 -7.183760E+01 -2.302171E+01  6.893633E+01  1.732952E+00
         8   3  8.706242E+01  2.336679E+01  2.594230E+01 -2.597375E+01  2.275671E+01 -6.750207E+00
         8   4  1.066874E+02  1.606663E+01  2.791733E+01 -2.277941E+01  3.248240E+01 -7.336975E+00
         8   5 -3.811342E+02 -5.282385E+01  7.585500E+01  9.921541E+00 -3.666418E+01 -1.473080E+00
         8   6 -3.669836E+02  3.826536E+01  7.755947E+01  3.592219E+01 -3.607419E+01  8.516302E+00
         8   7 -9.699859E+01 -4.666198E+00 -2.009044E+01  3.701282E+01 -3.706913E+00  2.721598E+00
         8   8 -1.048562E+02 -8.644066E+00 -1.733657E+01  2.993469E+01  2.705135E+00  9.718017E-01
