
KNOT1
tra         8  0.1240E-14 -0.1125E-05  0.1525E-05
rot       122  0.7357E-03 -0.7574E-12  0.2740E-12
exp       123  0.1317E-06

KNOT1
tra        25  0.1240E-14 -0.1125E-05 -0.1525E-05
rot       300 -0.7357E-03  0.7574E-12  0.2740E-12
exp       301  0.1317E-06

 displacements (vx,vy,vz) for set NALL and time  0.1000000E+01

         1  4.902008E-18 -3.594815E-17  0.000000E+00
         2 -2.763866E-08 -2.644161E-07 -6.767812E-05
         3 -2.213513E-08 -1.282520E-07 -1.770449E-05
         4 -8.132121E-09 -5.438600E-07 -1.904651E-04
         5 -2.125151E-08 -4.039530E-07 -1.314606E-04
         6  1.819575E-08 -8.146748E-07 -2.148689E-04
         7  6.841576E-09 -6.810598E-07 -2.249005E-04
         8  1.240372E-15 -1.125182E-06  1.524720E-06
         9  1.876123E-08 -9.565685E-07 -1.443189E-04
        10 -1.819550E-08 -8.146747E-07 -2.148689E-04
        11 -1.876110E-08 -9.565685E-07 -1.443189E-04
        12  8.132477E-09 -5.438600E-07 -1.904651E-04
        13 -6.841250E-09 -6.810597E-07 -2.249005E-04
        14  2.763887E-08 -2.644160E-07 -6.767812E-05
        15  2.125183E-08 -4.039529E-07 -1.314606E-04
        16 -4.901938E-18 -3.594778E-17 -2.067952E-25
        17  2.213520E-08 -1.282520E-07 -1.770449E-05
        18 -4.902015E-18  3.594801E-17  0.000000E+00
        19 -2.763866E-08 -2.644161E-07  6.767812E-05
        20 -2.213513E-08 -1.282520E-07  1.770449E-05
        21 -8.132121E-09 -5.438600E-07  1.904651E-04
        22 -2.125151E-08 -4.039530E-07  1.314606E-04
        23  1.819575E-08 -8.146748E-07  2.148689E-04
        24  6.841576E-09 -6.810598E-07  2.249005E-04
        25  1.240181E-15 -1.125182E-06 -1.524720E-06
        26  1.876123E-08 -9.565685E-07  1.443189E-04
        27 -1.819550E-08 -8.146747E-07  2.148689E-04
        28 -1.876110E-08 -9.565685E-07  1.443189E-04
        29  8.132478E-09 -5.438600E-07  1.904651E-04
        30 -6.841249E-09 -6.810597E-07  2.249005E-04
        31  2.763887E-08 -2.644160E-07  6.767812E-05
        32  2.125183E-08 -4.039529E-07  1.314606E-04
        33  4.901938E-18  3.594764E-17  2.067952E-25
        34  2.213520E-08 -1.282520E-07  1.770449E-05
        35 -4.303030E-13 -8.645863E-04 -6.583425E-07
        36 -2.487572E-13 -3.576299E-04 -1.175735E-06
        37 -5.773355E-13 -1.453662E-03 -1.510196E-15
        38 -5.405982E-13 -1.303327E-03 -2.148720E-07
        39 -4.302662E-13 -8.645863E-04  6.583425E-07
        40 -5.405660E-13 -1.303327E-03  2.148720E-07
        41 -2.487352E-13 -3.576299E-04  1.175735E-06

 stresses (elem, integ.pnt.,sxx,syy,szz,sxy,sxz,syz) for set EALL and time  0.1000000E+01

         1   1 -1.071906E-02 -2.123472E+00  8.154986E-02 -3.633333E-01 -4.033528E-02 -3.637618E-01
         1   2 -8.288363E-02 -1.968779E+00 -7.117002E-02 -5.106430E-01 -6.883637E-02 -7.665397E-02
         1   3 -6.243709E-01 -2.036567E+00 -4.305983E-01 -5.919227E-01 -7.273998E-02 -2.668994E-01
         1   4 -1.570166E-01 -1.948726E+00  1.074515E-01 -6.309657E-01 -1.539214E-02 -7.581832E-02
         1   5 -1.354521E-01 -1.879738E+00 -5.310466E-02 -6.184239E-01  2.874678E-02  1.089589E-01
         1   6 -5.831885E-01 -2.033201E+00 -4.202152E-01 -5.398868E-01 -3.792962E-02 -1.497714E-01
         1   7 -3.300093E-01 -1.829383E+00  1.089491E-01 -9.066895E-01 -6.978160E-02 -7.691813E-02
         1   8 -2.147721E-01 -1.846171E+00 -5.955072E-02 -7.343020E-01  9.038004E-02  1.628560E-01
         1   9 -5.687573E-01 -2.085271E+00 -4.344002E-01 -4.959322E-01  4.313823E-03 -7.030281E-03
         1  10  4.206980E-04 -1.026010E-01  1.243753E-03 -1.446415E-02 -4.151539E-02 -3.549972E-01
         1  11 -4.669646E-03 -1.012814E-01 -7.098286E-04 -2.026423E-02 -6.979789E-02 -7.495687E-02
         1  12 -6.988959E-03 -9.666481E-02 -9.825473E-06 -2.571915E-02 -7.354191E-02 -2.722454E-01
         1  13 -4.492449E-03 -9.510424E-02  1.549219E-03 -2.415339E-02 -1.683128E-02 -6.732514E-02
         1  14 -6.400859E-03 -9.680438E-02 -3.823962E-04 -2.415821E-02  2.761150E-02  1.104459E-01
         1  15 -5.514978E-03 -9.517595E-02  4.940628E-04 -2.385253E-02 -3.881506E-02 -1.552601E-01
         1  16 -1.032137E-02 -8.966184E-02  1.191254E-03 -3.415050E-02 -7.148151E-02 -6.870555E-02
         1  17 -9.100472E-03 -9.444771E-02 -8.242869E-04 -2.836506E-02  8.906939E-02  1.641261E-01
         1  18 -5.008449E-03 -9.576612E-02  1.724576E-04 -2.228268E-02  3.343150E-03 -1.266747E-02
         1  19  1.093712E-02  1.916274E+00 -7.986563E-02  3.341927E-01 -3.444158E-02 -3.415014E-01
         1  20  7.274722E-02  1.764175E+00  6.887829E-02  4.698543E-01 -6.631755E-02 -6.757564E-02
         1  21  6.094147E-01  1.841153E+00  4.296351E-01  5.401793E-01 -7.371408E-02 -2.709543E-01
         1  22  1.474237E-01  1.756536E+00 -1.051463E-01  5.824596E-01 -9.923955E-03 -5.373095E-02
         1  23  1.218682E-01  1.684109E+00  5.147869E-02  5.698561E-01  3.101055E-02  1.179869E-01
         1  24  5.711924E-01  1.840787E+00  4.202708E-01  4.918813E-01 -3.897831E-02 -1.537420E-01
         1  25  3.087823E-01  1.648108E+00 -1.073466E-01  8.382046E-01 -6.474243E-02 -5.502216E-02
         1  26  1.958056E-01  1.655281E+00  5.705249E-02  6.773305E-01  9.238554E-02  1.718200E-01
         1  27  5.577867E-01  1.891702E+00  4.338233E-01  4.510720E-01  3.187135E-03 -1.092798E-02
         2   1  2.783818E-01  4.233491E-01  4.546094E-01 -2.051242E-01 -4.019776E-02 -2.740209E-01
         2   2 -4.063726E-02  2.910938E-01  7.034802E-02 -1.064088E-01  7.125558E-03 -4.302255E-02
         2   3 -4.020326E-01  1.381303E-01 -3.331051E-01 -1.753101E-03 -5.339714E-02 -2.941133E-01
         2   4  3.157326E-01  3.790727E-01  4.474539E-01 -1.364859E-01 -4.221335E-02 -1.652512E-01
         2   5 -2.545513E-02  2.670955E-01  6.545334E-02 -7.543895E-02  2.061272E-02  8.390488E-02
         2   6 -4.090193E-01  1.344137E-01 -3.357150E-01 -8.449577E-03 -3.632405E-02 -1.460474E-01
         2   7  3.601631E-01  3.494150E-01  4.468644E-01 -6.572173E-02 -2.777446E-02  1.763888E-03
         2   8 -3.237115E-03  2.576547E-01  6.705051E-02 -4.235003E-02  3.917634E-02  2.278982E-01
         2   9 -4.090118E-01  1.451984E-01 -3.319048E-01 -1.303471E-02 -2.555254E-02 -2.209507E-02
         2  10 -7.429170E-03 -9.618489E-02  2.038684E-04 -2.705642E-02 -4.120885E-02 -2.817582E-01
         2  11 -6.477624E-03 -9.661536E-02  2.831196E-04 -2.557859E-02  6.035933E-03 -4.882670E-02
         2  12 -6.355026E-03 -9.788323E-02 -4.046578E-04 -2.394057E-02 -5.457922E-02 -2.979821E-01
         2  13 -6.287587E-03 -9.756063E-02 -1.697580E-04 -2.427664E-02 -4.322391E-02 -1.728955E-01
         2  14 -5.989148E-03 -9.712757E-02  6.878435E-05 -2.432819E-02  1.954196E-02  7.816778E-02
         2  15 -6.519814E-03 -9.752809E-02 -4.357563E-04 -2.421766E-02 -3.746917E-02 -1.498765E-01
         2  16 -4.817111E-03 -9.828462E-02 -1.925970E-04 -2.141085E-02 -2.878483E-02 -5.788104E-03
         2  17 -5.215407E-03 -9.704895E-02  1.311472E-04 -2.299853E-02  3.812418E-02  2.222275E-01
         2  18 -6.441072E-03 -9.663835E-02 -2.618751E-04 -2.442319E-02 -2.666088E-02 -2.588508E-02
         2  19 -2.929502E-01 -6.150937E-01 -4.539334E-01  1.510633E-01 -4.174996E-02 -2.800438E-01
         2  20  2.795538E-02 -4.837204E-01 -6.952515E-02  5.532617E-02  6.435670E-03 -4.543395E-02
         2  21  3.895812E-01 -3.333138E-01  3.325429E-01 -4.603181E-02 -5.325254E-02 -2.929089E-01
         2  22 -3.280211E-01 -5.735769E-01 -4.475281E-01  8.798492E-02 -4.378923E-02 -1.711870E-01
         2  23  1.374716E-02 -4.607539E-01 -6.506196E-02  2.685703E-02  1.993584E-02  8.152869E-02
         2  24  3.962355E-01 -3.288939E-01  3.350878E-01 -3.988964E-02 -3.613025E-02 -1.448625E-01
         2  25 -3.695134E-01 -5.453746E-01 -4.469870E-01  2.295280E-02 -2.937467E-02 -4.086102E-03
         2  26 -6.926334E-03 -4.511630E-01 -6.653720E-02 -3.572634E-03  3.851194E-02  2.255560E-01
         2  27  3.963827E-01 -3.379059E-01  3.316226E-01 -3.571572E-02 -2.530992E-02 -2.093083E-02
         3   1  5.361864E-01  2.701540E+00  5.084436E-01  4.343209E-01 -4.843614E-02 -3.052297E-01
         3   2 -3.927000E-02  2.414843E+00 -2.196539E-01  5.135797E-01 -4.952740E-02 -3.177571E-02
         3   3 -1.800282E-01  2.339302E+00 -7.552054E-01  5.333579E-01 -3.024579E-01 -2.351458E-01
         3   4  5.316268E-01  2.706920E+00  5.099847E-01  4.267547E-01 -3.632478E-02 -1.465045E-01
         3   5 -4.400911E-02  2.421248E+00 -2.184379E-01  5.039999E-01  2.653970E-02  1.058209E-01
         3   6 -1.849865E-01  2.346651E+00 -7.545164E-01  5.217766E-01 -3.767611E-02 -1.498680E-01
         3   7  5.254040E-01  2.708895E+00  5.099763E-01  4.186797E-01 -3.514906E-02 -2.950021E-02
         3   8 -5.038807E-02  2.424276E+00 -2.187317E-01  4.939135E-01  9.435737E-02  2.113023E-01
         3   9 -1.915655E-01  2.350642E+00 -7.552980E-01  5.096905E-01  2.215425E-01 -8.709966E-02
         3  10 -5.088256E-03 -9.621191E-02  5.908324E-04 -2.331751E-02 -5.055080E-02 -3.123593E-01
         3  11 -5.930991E-03 -9.756672E-02  1.485877E-05 -2.403631E-02 -5.165167E-02 -3.987997E-02
         3  12 -7.057118E-03 -9.580312E-02 -9.242205E-04 -2.371640E-02 -3.045393E-01 -2.442942E-01
         3  13 -5.651910E-03 -9.626626E-02  4.251777E-04 -2.411341E-02 -3.841625E-02 -1.536648E-01
         3  14 -6.014963E-03 -9.780802E-02  7.673287E-05 -2.450422E-02  2.442272E-02  9.769081E-02
         3  15 -6.700923E-03 -9.631204E-02 -8.367261E-04 -2.384418E-02 -3.975962E-02 -1.590385E-01
         3  16 -6.301572E-03 -9.646646E-02  1.610474E-04 -2.493921E-02 -3.721695E-02 -3.668924E-02
         3  17 -6.161486E-03 -9.816755E-02  7.981834E-05 -2.499982E-02  9.224807E-02  2.031483E-01
         3  18 -6.388107E-03 -9.692027E-02 -7.688894E-04 -2.399782E-02  2.194573E-01 -9.629053E-02
         3  19 -5.464767E-01 -2.894054E+00 -5.073697E-01 -4.809355E-01 -4.794042E-02 -3.026108E-01
         3  20  2.733073E-02 -2.610035E+00  2.196158E-01 -5.616373E-01 -4.931896E-02 -3.103911E-02
         3  21  1.658594E-01 -2.530936E+00  7.533314E-01 -5.807793E-01 -3.024318E-01 -2.364305E-01
         3  22 -5.430440E-01 -2.899541E+00 -5.092413E-01 -4.749610E-01 -3.577617E-02 -1.439211E-01
         3  23  3.190249E-02 -2.616920E+00  2.185245E-01 -5.529936E-01  2.676922E-02  1.065319E-01
         3  24  1.715306E-01 -2.539301E+00  7.528184E-01 -5.694542E-01 -3.764770E-02 -1.511708E-01
         3  25 -5.381199E-01 -2.901915E+00 -5.097605E-01 -4.685375E-01 -3.454680E-02 -2.694821E-02
         3  26  3.798900E-02 -2.620665E+00  2.188252E-01 -5.438987E-01  9.460876E-02  2.119914E-01
         3  27  1.787356E-01 -2.544507E+00  7.537365E-01 -5.576762E-01  2.215740E-01 -8.841722E-02
         4   1  3.888844E-01  4.387645E+00  7.051781E-02  8.595677E-01 -1.260585E-01 -1.955203E-01
         4   2  1.186358E-01  4.437500E+00  6.130077E-01  1.011605E+00  3.145589E-01 -2.202242E-01
         4   3  1.946685E+00  5.500646E+00  2.085732E+00  8.747148E-01  1.130720E-01 -2.533580E-01
         4   4  4.112548E-01  4.364264E+00  7.026432E-02  9.007634E-01 -2.320179E-02 -9.221489E-02
         4   5  1.128820E-01  4.441616E+00  6.131713E-01  1.000929E+00 -2.932211E-03 -1.233337E-02
         4   6  1.912544E+00  5.532103E+00  2.085371E+00  8.118427E-01 -2.281906E-02 -9.136905E-02
         4   7  4.335086E-01  4.340576E+00  6.992611E-02  9.419254E-01  8.470423E-02  3.076474E-02
         4   8  1.070220E-01  4.445429E+00  6.132548E-01  9.902164E-01 -3.151763E-01  2.162520E-01
         4   9  1.878280E+00  5.563249E+00  2.084921E+00  7.489371E-01 -1.532653E-01  9.233481E-02
         4  10 -5.288594E-03 -9.357677E-02  6.115108E-04 -2.357105E-02 -1.234304E-01 -1.856551E-01
         4  11 -5.774819E-03 -9.797634E-02 -1.123527E-04 -2.499220E-02  3.167121E-01 -2.110281E-01
         4  12 -6.707115E-03 -9.284281E-02 -1.352450E-03 -2.334209E-02  1.151365E-01 -2.448198E-01
         4  13 -5.383361E-03 -9.499612E-02  5.358461E-04 -2.386354E-02 -2.058109E-02 -8.232430E-02
         4  14 -6.048231E-03 -9.973495E-02  1.184340E-04 -2.497788E-02 -7.863780E-04 -3.145566E-03
         4  15 -7.421205E-03 -9.509682E-02 -1.757093E-03 -2.334515E-02 -2.072057E-02 -8.288246E-02
         4  16 -5.434619E-03 -9.637936E-02  5.264203E-04 -2.414703E-02  8.731683E-02  4.067924E-02
         4  17 -6.267551E-03 -1.014530E-01  4.201422E-04 -2.495769E-02 -3.130382E-01  2.254297E-01
         4  18 -8.098747E-03 -9.731876E-02 -2.098867E-03 -2.333903E-02 -1.511329E-01  1.007675E-01
         4  19 -3.993718E-01 -4.574292E+00 -6.921425E-02 -9.066349E-01 -1.264262E-01 -1.977640E-01
         4  20 -1.300771E-01 -4.632949E+00 -6.131905E-01 -1.061511E+00  3.132950E-01 -2.238195E-01
         4  21 -1.960096E+00 -5.685869E+00 -2.088483E+00 -9.212982E-01  1.116842E-01 -2.582823E-01
         4  22 -4.219303E-01 -4.553754E+00 -6.911256E-02 -9.484106E-01 -2.358568E-02 -9.441306E-02
         4  23 -1.248706E-01 -4.640581E+00 -6.128927E-01 -1.050807E+00 -4.212230E-03 -1.595038E-02
         4  24 -1.927388E+00 -5.721828E+00 -2.088932E+00 -8.584411E-01 -2.414014E-02 -9.640175E-02
         4  25 -4.442848E-01 -4.532836E+00 -6.879363E-02 -9.901347E-01  8.430285E-02  2.860920E-02
         4  26 -1.194497E-01 -4.647830E+00 -6.123730E-01 -1.040056E+00 -3.164731E-01  2.126097E-01
         4  27 -1.894482E+00 -5.757413E+00 -2.089166E+00 -7.955322E-01 -1.545198E-01  8.718914E-02
         5   1  1.946685E+00  5.500646E+00  2.085732E+00 -8.747148E-01 -1.130720E-01 -2.533580E-01
         5   2  1.186358E-01  4.437500E+00  6.130077E-01 -1.011605E+00 -3.145589E-01 -2.202242E-01
         5   3  3.888844E-01  4.387645E+00  7.051781E-02 -8.595677E-01  1.260585E-01 -1.955202E-01
         5   4  1.912544E+00  5.532103E+00  2.085371E+00 -8.118427E-01  2.281906E-02 -9.136905E-02
         5   5  1.128820E-01  4.441616E+00  6.131713E-01 -1.000929E+00  2.932211E-03 -1.233337E-02
         5   6  4.112548E-01  4.364264E+00  7.026432E-02 -9.007634E-01  2.320179E-02 -9.221489E-02
         5   7  1.878280E+00  5.563249E+00  2.084921E+00 -7.489371E-01  1.532653E-01  9.233481E-02
         5   8  1.070220E-01  4.445429E+00  6.132548E-01 -9.902164E-01  3.151763E-01  2.162520E-01
         5   9  4.335086E-01  4.340576E+00  6.992611E-02 -9.419254E-01 -8.470423E-02  3.076474E-02
         5  10 -6.707116E-03 -9.284281E-02 -1.352450E-03  2.334209E-02 -1.151365E-01 -2.448198E-01
         5  11 -5.774819E-03 -9.797634E-02 -1.123526E-04  2.499220E-02 -3.167121E-01 -2.110281E-01
         5  12 -5.288594E-03 -9.357677E-02  6.115112E-04  2.357105E-02  1.234304E-01 -1.856551E-01
         5  13 -7.421205E-03 -9.509682E-02 -1.757093E-03  2.334515E-02  2.072057E-02 -8.288246E-02
         5  14 -6.048231E-03 -9.973495E-02  1.184340E-04  2.497788E-02  7.863781E-04 -3.145566E-03
         5  15 -5.383361E-03 -9.499612E-02  5.358461E-04  2.386354E-02  2.058109E-02 -8.232430E-02
         5  16 -8.098747E-03 -9.731876E-02 -2.098867E-03  2.333903E-02  1.511329E-01  1.007675E-01
         5  17 -6.267551E-03 -1.014530E-01  4.201422E-04  2.495769E-02  3.130382E-01  2.254297E-01
         5  18 -5.434619E-03 -9.637936E-02  5.264200E-04  2.414703E-02 -8.731683E-02  4.067924E-02
         5  19 -1.960096E+00 -5.685869E+00 -2.088483E+00  9.212982E-01 -1.116842E-01 -2.582823E-01
         5  20 -1.300771E-01 -4.632949E+00 -6.131905E-01  1.061511E+00 -3.132950E-01 -2.238195E-01
         5  21 -3.993718E-01 -4.574292E+00 -6.921425E-02  9.066349E-01  1.264262E-01 -1.977640E-01
         5  22 -1.927388E+00 -5.721828E+00 -2.088932E+00  8.584411E-01  2.414014E-02 -9.640175E-02
         5  23 -1.248706E-01 -4.640581E+00 -6.128927E-01  1.050807E+00  4.212230E-03 -1.595038E-02
         5  24 -4.219303E-01 -4.553754E+00 -6.911256E-02  9.484106E-01  2.358568E-02 -9.441306E-02
         5  25 -1.894482E+00 -5.757413E+00 -2.089166E+00  7.955322E-01  1.545198E-01  8.718914E-02
         5  26 -1.194497E-01 -4.647830E+00 -6.123730E-01  1.040056E+00  3.164731E-01  2.126097E-01
         5  27 -4.442848E-01 -4.532836E+00 -6.879363E-02  9.901347E-01 -8.430285E-02  2.860920E-02
         6   1 -1.800282E-01  2.339302E+00 -7.552054E-01 -5.333579E-01  3.024579E-01 -2.351458E-01
         6   2 -3.927000E-02  2.414843E+00 -2.196539E-01 -5.135797E-01  4.952740E-02 -3.177570E-02
         6   3  5.361863E-01  2.701540E+00  5.084436E-01 -4.343209E-01  4.843613E-02 -3.052297E-01
         6   4 -1.849865E-01  2.346651E+00 -7.545164E-01 -5.217766E-01  3.767611E-02 -1.498680E-01
         6   5 -4.400910E-02  2.421248E+00 -2.184379E-01 -5.039999E-01 -2.653970E-02  1.058209E-01
         6   6  5.316268E-01  2.706920E+00  5.099847E-01 -4.267547E-01  3.632478E-02 -1.465045E-01
         6   7 -1.915655E-01  2.350642E+00 -7.552980E-01 -5.096905E-01 -2.215425E-01 -8.709967E-02
         6   8 -5.038807E-02  2.424276E+00 -2.187317E-01 -4.939135E-01 -9.435737E-02  2.113023E-01
         6   9  5.254040E-01  2.708895E+00  5.099763E-01 -4.186797E-01  3.514906E-02 -2.950022E-02
         6  10 -7.057119E-03 -9.580313E-02 -9.242209E-04  2.371640E-02  3.045393E-01 -2.442942E-01
         6  11 -5.930991E-03 -9.756672E-02  1.485886E-05  2.403631E-02  5.165167E-02 -3.987996E-02
         6  12 -5.088256E-03 -9.621191E-02  5.908327E-04  2.331751E-02  5.055080E-02 -3.123593E-01
         6  13 -6.700923E-03 -9.631204E-02 -8.367261E-04  2.384418E-02  3.975962E-02 -1.590385E-01
         6  14 -6.014963E-03 -9.780802E-02  7.673287E-05  2.450422E-02 -2.442272E-02  9.769081E-02
         6  15 -5.651910E-03 -9.626626E-02  4.251777E-04  2.411341E-02  3.841625E-02 -1.536648E-01
         6  16 -6.388107E-03 -9.692026E-02 -7.688890E-04  2.399782E-02 -2.194573E-01 -9.629053E-02
         6  17 -6.161485E-03 -9.816755E-02  7.981826E-05  2.499982E-02 -9.224807E-02  2.031483E-01
         6  18 -6.301573E-03 -9.646646E-02  1.610472E-04  2.493921E-02  3.721695E-02 -3.668925E-02
         6  19  1.658594E-01 -2.530936E+00  7.533314E-01  5.807793E-01  3.024318E-01 -2.364305E-01
         6  20  2.733073E-02 -2.610035E+00  2.196158E-01  5.616373E-01  4.931896E-02 -3.103911E-02
         6  21 -5.464767E-01 -2.894054E+00 -5.073697E-01  4.809355E-01  4.794042E-02 -3.026108E-01
         6  22  1.715306E-01 -2.539301E+00  7.528184E-01  5.694542E-01  3.764770E-02 -1.511708E-01
         6  23  3.190249E-02 -2.616920E+00  2.185245E-01  5.529936E-01 -2.676922E-02  1.065319E-01
         6  24 -5.430440E-01 -2.899541E+00 -5.092413E-01  4.749610E-01  3.577617E-02 -1.439211E-01
         6  25  1.787356E-01 -2.544507E+00  7.537365E-01  5.576762E-01 -2.215740E-01 -8.841722E-02
         6  26  3.798899E-02 -2.620665E+00  2.188252E-01  5.438987E-01 -9.460876E-02  2.119914E-01
         6  27 -5.381199E-01 -2.901915E+00 -5.097605E-01  4.685375E-01  3.454680E-02 -2.694821E-02
         7   1 -4.020326E-01  1.381303E-01 -3.331051E-01  1.753100E-03  5.339714E-02 -2.941133E-01
         7   2 -4.063726E-02  2.910938E-01  7.034801E-02  1.064088E-01 -7.125555E-03 -4.302255E-02
         7   3  2.783818E-01  4.233491E-01  4.546094E-01  2.051242E-01  4.019775E-02 -2.740209E-01
         7   4 -4.090193E-01  1.344137E-01 -3.357150E-01  8.449575E-03  3.632405E-02 -1.460474E-01
         7   5 -2.545513E-02  2.670955E-01  6.545333E-02  7.543895E-02 -2.061272E-02  8.390488E-02
         7   6  3.157326E-01  3.790726E-01  4.474539E-01  1.364859E-01  4.221334E-02 -1.652512E-01
         7   7 -4.090118E-01  1.451984E-01 -3.319048E-01  1.303471E-02  2.555254E-02 -2.209507E-02
         7   8 -3.237116E-03  2.576547E-01  6.705051E-02  4.235003E-02 -3.917634E-02  2.278982E-01
         7   9  3.601631E-01  3.494150E-01  4.468644E-01  6.572173E-02  2.777445E-02  1.763886E-03
         7  10 -6.355026E-03 -9.788324E-02 -4.046581E-04  2.394057E-02  5.457922E-02 -2.979821E-01
         7  11 -6.477624E-03 -9.661536E-02  2.831197E-04  2.557859E-02 -6.035931E-03 -4.882670E-02
         7  12 -7.429172E-03 -9.618490E-02  2.038673E-04  2.705642E-02  4.120884E-02 -2.817582E-01
         7  13 -6.519814E-03 -9.752809E-02 -4.357563E-04  2.421766E-02  3.746917E-02 -1.498765E-01
         7  14 -5.989148E-03 -9.712757E-02  6.878437E-05  2.432819E-02 -1.954196E-02  7.816778E-02
         7  15 -6.287588E-03 -9.756063E-02 -1.697581E-04  2.427664E-02  4.322391E-02 -1.728955E-01
         7  16 -6.441071E-03 -9.663834E-02 -2.618749E-04  2.442319E-02  2.666088E-02 -2.588508E-02
         7  17 -5.215407E-03 -9.704894E-02  1.311471E-04  2.299853E-02 -3.812418E-02  2.222275E-01
         7  18 -4.817110E-03 -9.828462E-02 -1.925960E-04  2.141085E-02  2.878483E-02 -5.788107E-03
         7  19  3.895812E-01 -3.333138E-01  3.325429E-01  4.603181E-02  5.325254E-02 -2.929089E-01
         7  20  2.795538E-02 -4.837204E-01 -6.952515E-02 -5.532617E-02 -6.435668E-03 -4.543395E-02
         7  21 -2.929502E-01 -6.150937E-01 -4.539334E-01 -1.510633E-01  4.174996E-02 -2.800438E-01
         7  22  3.962355E-01 -3.288939E-01  3.350878E-01  3.988965E-02  3.613026E-02 -1.448625E-01
         7  23  1.374716E-02 -4.607539E-01 -6.506195E-02 -2.685703E-02 -1.993584E-02  8.152869E-02
         7  24 -3.280210E-01 -5.735769E-01 -4.475281E-01 -8.798492E-02  4.378922E-02 -1.711870E-01
         7  25  3.963827E-01 -3.379059E-01  3.316226E-01  3.571572E-02  2.530992E-02 -2.093083E-02
         7  26 -6.926332E-03 -4.511630E-01 -6.653719E-02  3.572635E-03 -3.851194E-02  2.255560E-01
         7  27 -3.695134E-01 -5.453746E-01 -4.469870E-01 -2.295280E-02  2.937466E-02 -4.086107E-03
         8   1 -6.243709E-01 -2.036567E+00 -4.305983E-01  5.919227E-01  7.273999E-02 -2.668994E-01
         8   2 -8.288363E-02 -1.968779E+00 -7.117002E-02  5.106430E-01  6.883637E-02 -7.665399E-02
         8   3 -1.071905E-02 -2.123472E+00  8.154986E-02  3.633333E-01  4.033528E-02 -3.637619E-01
         8   4 -5.831885E-01 -2.033201E+00 -4.202152E-01  5.398868E-01  3.792962E-02 -1.497714E-01
         8   5 -1.354521E-01 -1.879738E+00 -5.310466E-02  6.184239E-01 -2.874678E-02  1.089588E-01
         8   6 -1.570166E-01 -1.948726E+00  1.074515E-01  6.309656E-01  1.539214E-02 -7.581831E-02
         8   7 -5.687573E-01 -2.085270E+00 -4.344002E-01  4.959322E-01 -4.313818E-03 -7.030276E-03
         8   8 -2.147720E-01 -1.846171E+00 -5.955071E-02  7.343020E-01 -9.038004E-02  1.628560E-01
         8   9 -3.300093E-01 -1.829383E+00  1.089491E-01  9.066895E-01  6.978158E-02 -7.691809E-02
         8  10 -6.988959E-03 -9.666480E-02 -9.824377E-06  2.571915E-02  7.354191E-02 -2.722454E-01
         8  11 -4.669643E-03 -1.012814E-01 -7.098286E-04  2.026423E-02  6.979789E-02 -7.495690E-02
         8  12  4.206973E-04 -1.026010E-01  1.243752E-03  1.446415E-02  4.151539E-02 -3.549972E-01
         8  13 -5.514979E-03 -9.517595E-02  4.940629E-04  2.385254E-02  3.881507E-02 -1.552601E-01
         8  14 -6.400857E-03 -9.680438E-02 -3.823962E-04  2.415821E-02 -2.761150E-02  1.104459E-01
         8  15 -4.492449E-03 -9.510424E-02  1.549219E-03  2.415339E-02  1.683127E-02 -6.732513E-02
         8  16 -5.008451E-03 -9.576612E-02  1.724566E-04  2.228268E-02 -3.343144E-03 -1.266747E-02
         8  17 -9.100471E-03 -9.444771E-02 -8.242868E-04  2.836506E-02 -8.906939E-02  1.641262E-01
         8  18 -1.032137E-02 -8.966184E-02  1.191255E-03  3.415050E-02  7.148150E-02 -6.870550E-02
         8  19  6.094147E-01  1.841153E+00  4.296351E-01 -5.401793E-01  7.371409E-02 -2.709543E-01
         8  20  7.274723E-02  1.764175E+00  6.887829E-02 -4.698543E-01  6.631755E-02 -6.757567E-02
         8  21  1.093711E-02  1.916274E+00 -7.986562E-02 -3.341927E-01  3.444158E-02 -3.415014E-01
         8  22  5.711924E-01  1.840787E+00  4.202708E-01 -4.918813E-01  3.897831E-02 -1.537420E-01
         8  23  1.218682E-01  1.684109E+00  5.147869E-02 -5.698561E-01 -3.101055E-02  1.179869E-01
         8  24  1.474237E-01  1.756536E+00 -1.051463E-01 -5.824596E-01  9.923950E-03 -5.373095E-02
         8  25  5.577867E-01  1.891702E+00  4.338233E-01 -4.510720E-01 -3.187130E-03 -1.092798E-02
         8  26  1.958056E-01  1.655281E+00  5.705248E-02 -6.773305E-01 -9.238555E-02  1.718201E-01
         8  27  3.087822E-01  1.648108E+00 -1.073466E-01 -8.382046E-01  6.474241E-02 -5.502211E-02
         9   1  1.093712E-02  1.916274E+00 -7.986563E-02  3.341927E-01  3.444158E-02  3.415014E-01
         9   2  7.274722E-02  1.764175E+00  6.887829E-02  4.698543E-01  6.631755E-02  6.757564E-02
         9   3  6.094147E-01  1.841153E+00  4.296351E-01  5.401793E-01  7.371408E-02  2.709543E-01
         9   4  1.474237E-01  1.756536E+00 -1.051463E-01  5.824596E-01  9.923955E-03  5.373095E-02
         9   5  1.218682E-01  1.684109E+00  5.147869E-02  5.698561E-01 -3.101055E-02 -1.179869E-01
         9   6  5.711924E-01  1.840787E+00  4.202708E-01  4.918813E-01  3.897831E-02  1.537420E-01
         9   7  3.087823E-01  1.648108E+00 -1.073466E-01  8.382046E-01  6.474243E-02  5.502216E-02
         9   8  1.958056E-01  1.655281E+00  5.705249E-02  6.773305E-01 -9.238554E-02 -1.718200E-01
         9   9  5.577867E-01  1.891702E+00  4.338233E-01  4.510720E-01 -3.187135E-03  1.092798E-02
         9  10  4.206980E-04 -1.026010E-01  1.243753E-03 -1.446415E-02  4.151539E-02  3.549972E-01
         9  11 -4.669646E-03 -1.012814E-01 -7.098286E-04 -2.026423E-02  6.979789E-02  7.495687E-02
         9  12 -6.988959E-03 -9.666481E-02 -9.825474E-06 -2.571915E-02  7.354191E-02  2.722454E-01
         9  13 -4.492449E-03 -9.510424E-02  1.549219E-03 -2.415339E-02  1.683128E-02  6.732514E-02
         9  14 -6.400859E-03 -9.680438E-02 -3.823962E-04 -2.415821E-02 -2.761150E-02 -1.104459E-01
         9  15 -5.514978E-03 -9.517595E-02  4.940628E-04 -2.385253E-02  3.881506E-02  1.552601E-01
         9  16 -1.032137E-02 -8.966184E-02  1.191254E-03 -3.415050E-02  7.148151E-02  6.870555E-02
         9  17 -9.100472E-03 -9.444771E-02 -8.242869E-04 -2.836506E-02 -8.906939E-02 -1.641261E-01
         9  18 -5.008449E-03 -9.576612E-02  1.724577E-04 -2.228268E-02 -3.343150E-03  1.266747E-02
         9  19 -1.071906E-02 -2.123472E+00  8.154986E-02 -3.633333E-01  4.033528E-02  3.637618E-01
         9  20 -8.288363E-02 -1.968779E+00 -7.117002E-02 -5.106430E-01  6.883637E-02  7.665397E-02
         9  21 -6.243709E-01 -2.036567E+00 -4.305983E-01 -5.919227E-01  7.273998E-02  2.668994E-01
         9  22 -1.570166E-01 -1.948726E+00  1.074515E-01 -6.309657E-01  1.539214E-02  7.581832E-02
         9  23 -1.354521E-01 -1.879738E+00 -5.310466E-02 -6.184239E-01 -2.874678E-02 -1.089589E-01
         9  24 -5.831885E-01 -2.033201E+00 -4.202152E-01 -5.398868E-01  3.792962E-02  1.497714E-01
         9  25 -3.300093E-01 -1.829383E+00  1.089491E-01 -9.066895E-01  6.978160E-02  7.691813E-02
         9  26 -2.147721E-01 -1.846171E+00 -5.955072E-02 -7.343020E-01 -9.038004E-02 -1.628560E-01
         9  27 -5.687573E-01 -2.085271E+00 -4.344002E-01 -4.959322E-01 -4.313823E-03  7.030281E-03
        10   1 -2.929502E-01 -6.150937E-01 -4.539334E-01  1.510633E-01  4.174996E-02  2.800438E-01
        10   2  2.795538E-02 -4.837204E-01 -6.952515E-02  5.532617E-02 -6.435670E-03  4.543395E-02
        10   3  3.895812E-01 -3.333138E-01  3.325429E-01 -4.603181E-02  5.325254E-02  2.929089E-01
        10   4 -3.280211E-01 -5.735769E-01 -4.475281E-01  8.798492E-02  4.378923E-02  1.711870E-01
        10   5  1.374716E-02 -4.607539E-01 -6.506196E-02  2.685703E-02 -1.993584E-02 -8.152869E-02
        10   6  3.962355E-01 -3.288939E-01  3.350878E-01 -3.988964E-02  3.613025E-02  1.448625E-01
        10   7 -3.695134E-01 -5.453746E-01 -4.469870E-01  2.295280E-02  2.937467E-02  4.086102E-03
        10   8 -6.926334E-03 -4.511630E-01 -6.653720E-02 -3.572634E-03 -3.851194E-02 -2.255560E-01
        10   9  3.963827E-01 -3.379059E-01  3.316226E-01 -3.571572E-02  2.530992E-02  2.093083E-02
        10  10 -7.429170E-03 -9.618489E-02  2.038684E-04 -2.705642E-02  4.120885E-02  2.817582E-01
        10  11 -6.477624E-03 -9.661536E-02  2.831196E-04 -2.557859E-02 -6.035933E-03  4.882670E-02
        10  12 -6.355026E-03 -9.788323E-02 -4.046578E-04 -2.394057E-02  5.457922E-02  2.979821E-01
        10  13 -6.287587E-03 -9.756063E-02 -1.697580E-04 -2.427664E-02  4.322391E-02  1.728955E-01
        10  14 -5.989148E-03 -9.712757E-02  6.878435E-05 -2.432819E-02 -1.954196E-02 -7.816778E-02
        10  15 -6.519814E-03 -9.752809E-02 -4.357563E-04 -2.421766E-02  3.746917E-02  1.498765E-01
        10  16 -4.817111E-03 -9.828462E-02 -1.925970E-04 -2.141085E-02  2.878483E-02  5.788104E-03
        10  17 -5.215407E-03 -9.704895E-02  1.311472E-04 -2.299853E-02 -3.812418E-02 -2.222275E-01
        10  18 -6.441072E-03 -9.663835E-02 -2.618751E-04 -2.442319E-02  2.666088E-02  2.588508E-02
        10  19  2.783818E-01  4.233491E-01  4.546094E-01 -2.051242E-01  4.019776E-02  2.740209E-01
        10  20 -4.063726E-02  2.910938E-01  7.034802E-02 -1.064088E-01 -7.125558E-03  4.302255E-02
        10  21 -4.020326E-01  1.381303E-01 -3.331051E-01 -1.753101E-03  5.339714E-02  2.941133E-01
        10  22  3.157326E-01  3.790727E-01  4.474539E-01 -1.364859E-01  4.221335E-02  1.652512E-01
        10  23 -2.545513E-02  2.670955E-01  6.545334E-02 -7.543895E-02 -2.061272E-02 -8.390488E-02
        10  24 -4.090193E-01  1.344137E-01 -3.357150E-01 -8.449577E-03  3.632405E-02  1.460474E-01
        10  25  3.601631E-01  3.494150E-01  4.468644E-01 -6.572173E-02  2.777446E-02 -1.763888E-03
        10  26 -3.237115E-03  2.576547E-01  6.705051E-02 -4.235003E-02 -3.917634E-02 -2.278982E-01
        10  27 -4.090118E-01  1.451984E-01 -3.319048E-01 -1.303471E-02  2.555254E-02  2.209507E-02
        11   1 -5.464767E-01 -2.894054E+00 -5.073697E-01 -4.809355E-01  4.794042E-02  3.026108E-01
        11   2  2.733073E-02 -2.610035E+00  2.196158E-01 -5.616373E-01  4.931896E-02  3.103911E-02
        11   3  1.658594E-01 -2.530936E+00  7.533314E-01 -5.807793E-01  3.024318E-01  2.364305E-01
        11   4 -5.430440E-01 -2.899541E+00 -5.092413E-01 -4.749610E-01  3.577617E-02  1.439211E-01
        11   5  3.190249E-02 -2.616920E+00  2.185245E-01 -5.529936E-01 -2.676922E-02 -1.065319E-01
        11   6  1.715306E-01 -2.539301E+00  7.528184E-01 -5.694542E-01  3.764770E-02  1.511708E-01
        11   7 -5.381199E-01 -2.901915E+00 -5.097605E-01 -4.685375E-01  3.454680E-02  2.694821E-02
        11   8  3.798900E-02 -2.620665E+00  2.188252E-01 -5.438987E-01 -9.460876E-02 -2.119914E-01
        11   9  1.787356E-01 -2.544507E+00  7.537365E-01 -5.576762E-01 -2.215740E-01  8.841722E-02
        11  10 -5.088256E-03 -9.621191E-02  5.908324E-04 -2.331751E-02  5.055080E-02  3.123593E-01
        11  11 -5.930991E-03 -9.756672E-02  1.485877E-05 -2.403631E-02  5.165167E-02  3.987997E-02
        11  12 -7.057118E-03 -9.580312E-02 -9.242205E-04 -2.371640E-02  3.045393E-01  2.442942E-01
        11  13 -5.651910E-03 -9.626626E-02  4.251777E-04 -2.411341E-02  3.841625E-02  1.536648E-01
        11  14 -6.014963E-03 -9.780802E-02  7.673287E-05 -2.450422E-02 -2.442272E-02 -9.769081E-02
        11  15 -6.700923E-03 -9.631204E-02 -8.367261E-04 -2.384418E-02  3.975962E-02  1.590385E-01
        11  16 -6.301572E-03 -9.646646E-02  1.610474E-04 -2.493921E-02  3.721695E-02  3.668924E-02
        11  17 -6.161486E-03 -9.816755E-02  7.981835E-05 -2.499982E-02 -9.224807E-02 -2.031483E-01
        11  18 -6.388107E-03 -9.692027E-02 -7.688894E-04 -2.399782E-02 -2.194573E-01  9.629053E-02
        11  19  5.361864E-01  2.701540E+00  5.084436E-01  4.343209E-01  4.843614E-02  3.052297E-01
        11  20 -3.927000E-02  2.414843E+00 -2.196539E-01  5.135797E-01  4.952740E-02  3.177571E-02
        11  21 -1.800282E-01  2.339302E+00 -7.552054E-01  5.333579E-01  3.024579E-01  2.351458E-01
        11  22  5.316268E-01  2.706920E+00  5.099847E-01  4.267547E-01  3.632478E-02  1.465045E-01
        11  23 -4.400911E-02  2.421248E+00 -2.184379E-01  5.039999E-01 -2.653970E-02 -1.058209E-01
        11  24 -1.849865E-01  2.346651E+00 -7.545164E-01  5.217766E-01  3.767611E-02  1.498680E-01
        11  25  5.254040E-01  2.708895E+00  5.099763E-01  4.186797E-01  3.514906E-02  2.950021E-02
        11  26 -5.038807E-02  2.424276E+00 -2.187317E-01  4.939135E-01 -9.435737E-02 -2.113023E-01
        11  27 -1.915655E-01  2.350642E+00 -7.552980E-01  5.096905E-01 -2.215425E-01  8.709966E-02
        12   1 -3.993718E-01 -4.574292E+00 -6.921425E-02 -9.066349E-01  1.264262E-01  1.977640E-01
        12   2 -1.300771E-01 -4.632949E+00 -6.131905E-01 -1.061511E+00 -3.132950E-01  2.238195E-01
        12   3 -1.960096E+00 -5.685869E+00 -2.088483E+00 -9.212982E-01 -1.116842E-01  2.582823E-01
        12   4 -4.219303E-01 -4.553754E+00 -6.911256E-02 -9.484106E-01  2.358568E-02  9.441306E-02
        12   5 -1.248706E-01 -4.640581E+00 -6.128927E-01 -1.050807E+00  4.212230E-03  1.595038E-02
        12   6 -1.927388E+00 -5.721828E+00 -2.088932E+00 -8.584411E-01  2.414014E-02  9.640175E-02
        12   7 -4.442848E-01 -4.532836E+00 -6.879363E-02 -9.901347E-01 -8.430285E-02 -2.860920E-02
        12   8 -1.194497E-01 -4.647830E+00 -6.123730E-01 -1.040056E+00  3.164731E-01 -2.126097E-01
        12   9 -1.894482E+00 -5.757413E+00 -2.089166E+00 -7.955322E-01  1.545198E-01 -8.718914E-02
        12  10 -5.288594E-03 -9.357677E-02  6.115108E-04 -2.357105E-02  1.234304E-01  1.856551E-01
        12  11 -5.774819E-03 -9.797634E-02 -1.123527E-04 -2.499220E-02 -3.167121E-01  2.110281E-01
        12  12 -6.707115E-03 -9.284281E-02 -1.352450E-03 -2.334209E-02 -1.151365E-01  2.448198E-01
        12  13 -5.383361E-03 -9.499612E-02  5.358461E-04 -2.386354E-02  2.058109E-02  8.232430E-02
        12  14 -6.048231E-03 -9.973495E-02  1.184340E-04 -2.497788E-02  7.863780E-04  3.145566E-03
        12  15 -7.421205E-03 -9.509682E-02 -1.757093E-03 -2.334515E-02  2.072057E-02  8.288246E-02
        12  16 -5.434619E-03 -9.637936E-02  5.264203E-04 -2.414703E-02 -8.731683E-02 -4.067924E-02
        12  17 -6.267551E-03 -1.014530E-01  4.201422E-04 -2.495769E-02  3.130382E-01 -2.254297E-01
        12  18 -8.098747E-03 -9.731876E-02 -2.098867E-03 -2.333903E-02  1.511329E-01 -1.007675E-01
        12  19  3.888844E-01  4.387645E+00  7.051781E-02  8.595677E-01  1.260585E-01  1.955203E-01
        12  20  1.186358E-01  4.437500E+00  6.130077E-01  1.011605E+00 -3.145589E-01  2.202242E-01
        12  21  1.946685E+00  5.500646E+00  2.085732E+00  8.747148E-01 -1.130720E-01  2.533580E-01
        12  22  4.112548E-01  4.364264E+00  7.026432E-02  9.007634E-01  2.320179E-02  9.221489E-02
        12  23  1.128820E-01  4.441616E+00  6.131713E-01  1.000929E+00  2.932211E-03  1.233337E-02
        12  24  1.912544E+00  5.532103E+00  2.085371E+00  8.118427E-01  2.281906E-02  9.136905E-02
        12  25  4.335086E-01  4.340576E+00  6.992611E-02  9.419254E-01 -8.470423E-02 -3.076474E-02
        12  26  1.070220E-01  4.445429E+00  6.132548E-01  9.902164E-01  3.151763E-01 -2.162520E-01
        12  27  1.878280E+00  5.563249E+00  2.084921E+00  7.489371E-01  1.532653E-01 -9.233481E-02
        13   1 -1.960096E+00 -5.685869E+00 -2.088483E+00  9.212982E-01  1.116842E-01  2.582823E-01
        13   2 -1.300771E-01 -4.632949E+00 -6.131905E-01  1.061511E+00  3.132950E-01  2.238195E-01
        13   3 -3.993718E-01 -4.574292E+00 -6.921425E-02  9.066349E-01 -1.264262E-01  1.977640E-01
        13   4 -1.927388E+00 -5.721828E+00 -2.088932E+00  8.584411E-01 -2.414014E-02  9.640175E-02
        13   5 -1.248706E-01 -4.640581E+00 -6.128927E-01  1.050807E+00 -4.212230E-03  1.595038E-02
        13   6 -4.219303E-01 -4.553754E+00 -6.911256E-02  9.484106E-01 -2.358568E-02  9.441306E-02
        13   7 -1.894482E+00 -5.757413E+00 -2.089166E+00  7.955322E-01 -1.545198E-01 -8.718914E-02
        13   8 -1.194497E-01 -4.647830E+00 -6.123730E-01  1.040056E+00 -3.164731E-01 -2.126097E-01
        13   9 -4.442848E-01 -4.532836E+00 -6.879363E-02  9.901347E-01  8.430285E-02 -2.860920E-02
        13  10 -6.707116E-03 -9.284281E-02 -1.352450E-03  2.334209E-02  1.151365E-01  2.448198E-01
        13  11 -5.774819E-03 -9.797634E-02 -1.123526E-04  2.499220E-02  3.167121E-01  2.110281E-01
        13  12 -5.288594E-03 -9.357677E-02  6.115112E-04  2.357105E-02 -1.234304E-01  1.856551E-01
        13  13 -7.421205E-03 -9.509682E-02 -1.757093E-03  2.334515E-02 -2.072057E-02  8.288246E-02
        13  14 -6.048231E-03 -9.973495E-02  1.184340E-04  2.497788E-02 -7.863781E-04  3.145566E-03
        13  15 -5.383361E-03 -9.499612E-02  5.358461E-04  2.386354E-02 -2.058109E-02  8.232430E-02
        13  16 -8.098747E-03 -9.731876E-02 -2.098867E-03  2.333903E-02 -1.511329E-01 -1.007675E-01
        13  17 -6.267551E-03 -1.014530E-01  4.201422E-04  2.495769E-02 -3.130382E-01 -2.254297E-01
        13  18 -5.434619E-03 -9.637936E-02  5.264200E-04  2.414703E-02  8.731683E-02 -4.067924E-02
        13  19  1.946685E+00  5.500646E+00  2.085732E+00 -8.747148E-01  1.130720E-01  2.533580E-01
        13  20  1.186358E-01  4.437500E+00  6.130077E-01 -1.011605E+00  3.145589E-01  2.202242E-01
        13  21  3.888844E-01  4.387645E+00  7.051781E-02 -8.595677E-01 -1.260585E-01  1.955202E-01
        13  22  1.912544E+00  5.532103E+00  2.085371E+00 -8.118427E-01 -2.281906E-02  9.136905E-02
        13  23  1.128820E-01  4.441616E+00  6.131713E-01 -1.000929E+00 -2.932211E-03  1.233337E-02
        13  24  4.112548E-01  4.364264E+00  7.026432E-02 -9.007634E-01 -2.320179E-02  9.221489E-02
        13  25  1.878280E+00  5.563249E+00  2.084921E+00 -7.489371E-01 -1.532653E-01 -9.233481E-02
        13  26  1.070220E-01  4.445429E+00  6.132548E-01 -9.902164E-01 -3.151763E-01 -2.162520E-01
        13  27  4.335086E-01  4.340576E+00  6.992611E-02 -9.419254E-01  8.470423E-02 -3.076474E-02
        14   1  1.658594E-01 -2.530936E+00  7.533314E-01  5.807793E-01 -3.024318E-01  2.364305E-01
        14   2  2.733073E-02 -2.610035E+00  2.196158E-01  5.616373E-01 -4.931896E-02  3.103911E-02
        14   3 -5.464767E-01 -2.894054E+00 -5.073697E-01  4.809355E-01 -4.794042E-02  3.026108E-01
        14   4  1.715306E-01 -2.539301E+00  7.528184E-01  5.694542E-01 -3.764770E-02  1.511708E-01
        14   5  3.190249E-02 -2.616920E+00  2.185245E-01  5.529936E-01  2.676922E-02 -1.065319E-01
        14   6 -5.430440E-01 -2.899541E+00 -5.092413E-01  4.749610E-01 -3.577617E-02  1.439211E-01
        14   7  1.787356E-01 -2.544507E+00  7.537365E-01  5.576762E-01  2.215740E-01  8.841722E-02
        14   8  3.798899E-02 -2.620665E+00  2.188252E-01  5.438987E-01  9.460876E-02 -2.119914E-01
        14   9 -5.381199E-01 -2.901915E+00 -5.097605E-01  4.685375E-01 -3.454680E-02  2.694821E-02
        14  10 -7.057119E-03 -9.580313E-02 -9.242209E-04  2.371640E-02 -3.045393E-01  2.442942E-01
        14  11 -5.930991E-03 -9.756672E-02  1.485886E-05  2.403631E-02 -5.165167E-02  3.987996E-02
        14  12 -5.088256E-03 -9.621191E-02  5.908327E-04  2.331751E-02 -5.055080E-02  3.123593E-01
        14  13 -6.700923E-03 -9.631204E-02 -8.367261E-04  2.384418E-02 -3.975962E-02  1.590385E-01
        14  14 -6.014963E-03 -9.780802E-02  7.673287E-05  2.450422E-02  2.442272E-02 -9.769081E-02
        14  15 -5.651910E-03 -9.626626E-02  4.251777E-04  2.411341E-02 -3.841625E-02  1.536648E-01
        14  16 -6.388107E-03 -9.692026E-02 -7.688890E-04  2.399782E-02  2.194573E-01  9.629053E-02
        14  17 -6.161485E-03 -9.816755E-02  7.981826E-05  2.499982E-02  9.224807E-02 -2.031483E-01
        14  18 -6.301573E-03 -9.646646E-02  1.610472E-04  2.493921E-02 -3.721695E-02  3.668925E-02
        14  19 -1.800282E-01  2.339302E+00 -7.552054E-01 -5.333579E-01 -3.024579E-01  2.351458E-01
        14  20 -3.927000E-02  2.414843E+00 -2.196539E-01 -5.135797E-01 -4.952740E-02  3.177570E-02
        14  21  5.361863E-01  2.701540E+00  5.084436E-01 -4.343209E-01 -4.843613E-02  3.052297E-01
        14  22 -1.849865E-01  2.346651E+00 -7.545164E-01 -5.217766E-01 -3.767611E-02  1.498680E-01
        14  23 -4.400910E-02  2.421248E+00 -2.184379E-01 -5.039999E-01  2.653970E-02 -1.058209E-01
        14  24  5.316268E-01  2.706920E+00  5.099847E-01 -4.267547E-01 -3.632478E-02  1.465045E-01
        14  25 -1.915655E-01  2.350642E+00 -7.552980E-01 -5.096905E-01  2.215425E-01  8.709967E-02
        14  26 -5.038807E-02  2.424276E+00 -2.187317E-01 -4.939135E-01  9.435737E-02 -2.113023E-01
        14  27  5.254040E-01  2.708895E+00  5.099763E-01 -4.186797E-01 -3.514906E-02  2.950022E-02
        15   1  3.895812E-01 -3.333138E-01  3.325429E-01  4.603181E-02 -5.325254E-02  2.929089E-01
        15   2  2.795538E-02 -4.837204E-01 -6.952515E-02 -5.532617E-02  6.435668E-03  4.543395E-02
        15   3 -2.929502E-01 -6.150937E-01 -4.539334E-01 -1.510633E-01 -4.174996E-02  2.800438E-01
        15   4  3.962355E-01 -3.288939E-01  3.350878E-01  3.988965E-02 -3.613026E-02  1.448625E-01
        15   5  1.374716E-02 -4.607539E-01 -6.506195E-02 -2.685703E-02  1.993584E-02 -8.152869E-02
        15   6 -3.280210E-01 -5.735769E-01 -4.475281E-01 -8.798492E-02 -4.378922E-02  1.711870E-01
        15   7  3.963827E-01 -3.379059E-01  3.316226E-01  3.571572E-02 -2.530992E-02  2.093083E-02
        15   8 -6.926332E-03 -4.511630E-01 -6.653719E-02  3.572635E-03  3.851194E-02 -2.255560E-01
        15   9 -3.695134E-01 -5.453746E-01 -4.469870E-01 -2.295280E-02 -2.937466E-02  4.086107E-03
        15  10 -6.355026E-03 -9.788324E-02 -4.046581E-04  2.394057E-02 -5.457922E-02  2.979821E-01
        15  11 -6.477624E-03 -9.661536E-02  2.831197E-04  2.557859E-02  6.035931E-03  4.882670E-02
        15  12 -7.429172E-03 -9.618490E-02  2.038673E-04  2.705642E-02 -4.120884E-02  2.817582E-01
        15  13 -6.519814E-03 -9.752809E-02 -4.357563E-04  2.421766E-02 -3.746917E-02  1.498765E-01
        15  14 -5.989148E-03 -9.712757E-02  6.878436E-05  2.432819E-02  1.954196E-02 -7.816778E-02
        15  15 -6.287588E-03 -9.756063E-02 -1.697581E-04  2.427664E-02 -4.322391E-02  1.728955E-01
        15  16 -6.441071E-03 -9.663834E-02 -2.618749E-04  2.442319E-02 -2.666088E-02  2.588508E-02
        15  17 -5.215407E-03 -9.704894E-02  1.311471E-04  2.299853E-02  3.812418E-02 -2.222275E-01
        15  18 -4.817110E-03 -9.828462E-02 -1.925960E-04  2.141085E-02 -2.878483E-02  5.788107E-03
        15  19 -4.020326E-01  1.381303E-01 -3.331051E-01  1.753100E-03 -5.339714E-02  2.941133E-01
        15  20 -4.063726E-02  2.910938E-01  7.034801E-02  1.064088E-01  7.125555E-03  4.302255E-02
        15  21  2.783818E-01  4.233491E-01  4.546094E-01  2.051242E-01 -4.019775E-02  2.740209E-01
        15  22 -4.090193E-01  1.344137E-01 -3.357150E-01  8.449575E-03 -3.632405E-02  1.460474E-01
        15  23 -2.545513E-02  2.670955E-01  6.545333E-02  7.543895E-02  2.061272E-02 -8.390488E-02
        15  24  3.157326E-01  3.790726E-01  4.474539E-01  1.364859E-01 -4.221334E-02  1.652512E-01
        15  25 -4.090118E-01  1.451984E-01 -3.319048E-01  1.303471E-02 -2.555254E-02  2.209507E-02
        15  26 -3.237116E-03  2.576547E-01  6.705051E-02  4.235003E-02  3.917634E-02 -2.278982E-01
        15  27  3.601631E-01  3.494150E-01  4.468644E-01  6.572173E-02 -2.777445E-02 -1.763886E-03
        16   1  6.094147E-01  1.841153E+00  4.296351E-01 -5.401793E-01 -7.371409E-02  2.709543E-01
        16   2  7.274723E-02  1.764175E+00  6.887829E-02 -4.698543E-01 -6.631755E-02  6.757567E-02
        16   3  1.093711E-02  1.916274E+00 -7.986562E-02 -3.341927E-01 -3.444158E-02  3.415014E-01
        16   4  5.711924E-01  1.840787E+00  4.202708E-01 -4.918813E-01 -3.897831E-02  1.537420E-01
        16   5  1.218682E-01  1.684109E+00  5.147869E-02 -5.698561E-01  3.101055E-02 -1.179869E-01
        16   6  1.474237E-01  1.756536E+00 -1.051463E-01 -5.824596E-01 -9.923950E-03  5.373095E-02
        16   7  5.577867E-01  1.891702E+00  4.338233E-01 -4.510720E-01  3.187130E-03  1.092798E-02
        16   8  1.958056E-01  1.655281E+00  5.705248E-02 -6.773305E-01  9.238555E-02 -1.718201E-01
        16   9  3.087822E-01  1.648108E+00 -1.073466E-01 -8.382046E-01 -6.474241E-02  5.502211E-02
        16  10 -6.988959E-03 -9.666480E-02 -9.824379E-06  2.571915E-02 -7.354191E-02  2.722454E-01
        16  11 -4.669643E-03 -1.012814E-01 -7.098286E-04  2.026423E-02 -6.979789E-02  7.495690E-02
        16  12  4.206973E-04 -1.026010E-01  1.243752E-03  1.446415E-02 -4.151539E-02  3.549972E-01
        16  13 -5.514979E-03 -9.517595E-02  4.940629E-04  2.385254E-02 -3.881507E-02  1.552601E-01
        16  14 -6.400857E-03 -9.680438E-02 -3.823962E-04  2.415821E-02  2.761150E-02 -1.104459E-01
        16  15 -4.492449E-03 -9.510424E-02  1.549219E-03  2.415339E-02 -1.683127E-02  6.732513E-02
        16  16 -5.008451E-03 -9.576612E-02  1.724566E-04  2.228268E-02  3.343144E-03  1.266747E-02
        16  17 -9.100471E-03 -9.444771E-02 -8.242868E-04  2.836506E-02  8.906939E-02 -1.641262E-01
        16  18 -1.032137E-02 -8.966184E-02  1.191255E-03  3.415050E-02 -7.148150E-02  6.870550E-02
        16  19 -6.243709E-01 -2.036567E+00 -4.305983E-01  5.919227E-01 -7.273999E-02  2.668994E-01
        16  20 -8.288363E-02 -1.968779E+00 -7.117002E-02  5.106430E-01 -6.883637E-02  7.665399E-02
        16  21 -1.071905E-02 -2.123472E+00  8.154986E-02  3.633333E-01 -4.033528E-02  3.637619E-01
        16  22 -5.831885E-01 -2.033201E+00 -4.202152E-01  5.398868E-01 -3.792962E-02  1.497714E-01
        16  23 -1.354521E-01 -1.879738E+00 -5.310466E-02  6.184239E-01  2.874678E-02 -1.089588E-01
        16  24 -1.570166E-01 -1.948726E+00  1.074515E-01  6.309656E-01 -1.539214E-02  7.581831E-02
        16  25 -5.687573E-01 -2.085270E+00 -4.344002E-01  4.959322E-01  4.313818E-03  7.030276E-03
        16  26 -2.147720E-01 -1.846171E+00 -5.955071E-02  7.343020E-01  9.038004E-02 -1.628560E-01
        16  27 -3.300093E-01 -1.829383E+00  1.089491E-01  9.066895E-01 -6.978158E-02  7.691809E-02
        17   1 -1.550222E+00 -2.187126E+00 -5.866485E+00 -3.179131E-01 -6.750669E-02  5.809611E-01
        17   2  8.387465E-02 -1.362403E+00 -4.836176E+00 -7.186084E-01 -1.019207E-02 -2.781474E-01
        17   3 -2.035966E+00 -2.145470E+00 -5.399230E+00 -4.786108E-02  4.579869E-02  5.858156E-01
        17   4 -1.550971E+00 -2.187880E+00 -5.868221E+00 -5.743127E-11  2.495485E-11  5.792121E-01
        17   5  8.310928E-02 -1.363187E+00 -4.837898E+00 -1.206169E-10 -1.953142E-11 -2.873972E-01
        17   6 -2.036708E+00 -2.146258E+00 -5.400915E+00  3.152106E-11  2.475798E-11  5.690651E-01
        17   7 -1.550222E+00 -2.187126E+00 -5.866485E+00  3.179131E-01  6.750669E-02  5.809611E-01
        17   8  8.387465E-02 -1.362403E+00 -4.836176E+00  7.186084E-01  1.019207E-02 -2.781474E-01
        17   9 -2.035966E+00 -2.145470E+00 -5.399230E+00  4.786108E-02 -4.579869E-02  5.858156E-01
        17  10  1.790073E-03  2.511176E-03 -9.534317E-02 -3.178546E-01  1.525350E-04  5.835019E-01
        17  11  6.430196E-04  5.798614E-05 -1.023924E-01 -7.185857E-01  1.048746E-03 -2.747062E-01
        17  12 -4.503652E-03 -3.057383E-03 -9.570149E-02 -4.793739E-02  6.203030E-04  5.901762E-01
        17  13  1.790734E-03  2.507801E-03 -9.532917E-02  6.368753E-13  1.952806E-11  5.817543E-01
        17  14  6.277825E-04  2.378645E-05 -1.023649E-01  1.538650E-13 -2.437662E-11 -2.839550E-01
        17  15 -4.495535E-03 -3.095590E-03 -9.563631E-02  8.192791E-15  1.969356E-11  5.734263E-01
        17  16  1.790075E-03  2.511178E-03 -9.534316E-02  3.178546E-01 -1.525350E-04  5.835019E-01
        17  17  6.430200E-04  5.798607E-05 -1.023924E-01  7.185857E-01 -1.048746E-03 -2.747062E-01
        17  18 -4.503652E-03 -3.057383E-03 -9.570148E-02  4.793739E-02 -6.203030E-04  5.901762E-01
        17  19  1.553793E+00  2.192141E+00  5.676265E+00 -3.177960E-01  6.782087E-02  5.866940E-01
        17  20 -8.251015E-02  1.362556E+00  4.631826E+00 -7.185630E-01  1.228971E-02 -2.706136E-01
        17  21  2.026911E+00  2.139324E+00  5.208166E+00 -4.801372E-02 -4.456515E-02  5.951882E-01
        17  22  1.554544E+00  2.192888E+00  5.678029E+00  5.905788E-11  2.160651E-11  5.849477E-01
        17  23 -8.177528E-02  1.363272E+00  4.633603E+00  1.206089E-10 -2.136537E-11 -2.798614E-01
        17  24  2.027669E+00  2.140036E+00  5.209981E+00 -2.989881E-11  2.197948E-11  5.784389E-01
        17  25  1.553793E+00  2.192141E+00  5.676265E+00  3.177960E-01 -6.782087E-02  5.866940E-01
        17  26 -8.251015E-02  1.362556E+00  4.631826E+00  7.185630E-01 -1.228971E-02 -2.706136E-01
        17  27  2.026911E+00  2.139324E+00  5.208166E+00  4.801372E-02  4.456515E-02  5.951882E-01
        18   1  2.317150E+00  3.220860E+00  9.566565E+00  4.546253E-01  2.203072E-02  6.654536E-01
        18   2 -1.529943E-01  6.120243E-01  8.359143E+00  3.697709E-01 -9.100393E-03 -3.499430E-01
        18   3 -1.777060E-01 -9.404477E-01  8.272693E+00 -4.113462E-01 -3.946317E-02  6.504772E-01
        18   4  2.317844E+00  3.221457E+00  9.568306E+00  8.343678E-11  9.152160E-13  6.283485E-01
        18   5 -1.523094E-01  6.126673E-01  8.360853E+00  6.393685E-12  3.248010E-12 -3.795461E-01
        18   6 -1.769982E-01 -9.397522E-01  8.274407E+00 -1.651888E-11 -2.094220E-12  6.283756E-01
        18   7  2.317150E+00  3.220860E+00  9.566565E+00 -4.546253E-01 -2.203072E-02  6.654536E-01
        18   8 -1.529943E-01  6.120243E-01  8.359143E+00 -3.697709E-01  9.100393E-03 -3.499430E-01
        18   9 -1.777060E-01 -9.404477E-01  8.272693E+00  4.113462E-01  3.946317E-02  6.504772E-01
        18  10  4.893916E-03  6.700558E-03 -8.205812E-02  4.545829E-01 -9.965712E-04  6.753586E-01
        18  11 -1.398070E-03 -2.206589E-03 -1.199059E-01  3.697750E-01 -7.019716E-04 -3.362419E-01
        18  12  5.980694E-04  7.128959E-04 -8.130600E-02 -4.113961E-01  3.610904E-04  6.687001E-01
        18  13  4.837934E-03  6.547336E-03 -8.206776E-02  8.541491E-13 -1.520847E-12  6.382561E-01
        18  14 -1.463265E-03 -2.313688E-03 -1.199459E-01 -9.305154E-14  2.006968E-12 -3.658434E-01
        18  15  5.557972E-04  6.583145E-04 -8.134236E-02  2.536332E-13 -1.658870E-12  6.465998E-01
        18  16  4.893915E-03  6.700558E-03 -8.205812E-02 -4.545829E-01  9.965712E-04  6.753586E-01
        18  17 -1.398070E-03 -2.206589E-03 -1.199059E-01 -3.697750E-01  7.019716E-04 -3.362419E-01
        18  18  5.980695E-04  7.128960E-04 -8.130599E-02  4.113961E-01 -3.610904E-04  6.687001E-01
        18  19 -2.307500E+00 -3.207698E+00 -9.729475E+00  4.545406E-01 -2.401508E-02  6.465489E-01
        18  20  1.503395E-01 -6.163903E-01 -8.597518E+00  3.697791E-01  7.697299E-03 -3.612567E-01
        18  21  1.790662E-01  9.421763E-01 -8.433702E+00 -4.114461E-01  4.017803E-02  6.482064E-01
        18  22 -2.308306E+00 -3.208602E+00 -9.731234E+00 -8.223138E-11 -6.469751E-12  6.094489E-01
        18  23  1.495242E-01 -6.172475E-01 -8.599308E+00 -6.727498E-12 -1.306729E-12 -3.908564E-01
        18  24  1.782738E-01  9.413716E-01 -8.435488E+00  1.692497E-11 -3.436054E-12  6.261075E-01
        18  25 -2.307500E+00 -3.207698E+00 -9.729475E+00 -4.545406E-01  2.401508E-02  6.465489E-01
        18  26  1.503395E-01 -6.163903E-01 -8.597518E+00 -3.697791E-01 -7.697299E-03 -3.612567E-01
        18  27  1.790662E-01  9.421763E-01 -8.433702E+00  4.114461E-01 -4.017803E-02  6.482064E-01
        19   1 -1.777060E-01 -9.404477E-01  8.272693E+00 -4.113462E-01  3.946317E-02 -6.504772E-01
        19   2 -1.529943E-01  6.120243E-01  8.359143E+00  3.697709E-01  9.100393E-03  3.499430E-01
        19   3  2.317150E+00  3.220860E+00  9.566565E+00  4.546253E-01 -2.203072E-02 -6.654536E-01
        19   4 -1.769982E-01 -9.397522E-01  8.274407E+00 -1.659233E-11  2.227254E-12 -6.283756E-01
        19   5 -1.523094E-01  6.126673E-01  8.360853E+00  6.855393E-12 -3.259501E-12  3.795461E-01
        19   6  2.317844E+00  3.221457E+00  9.568306E+00  8.294719E-11 -1.083153E-12 -6.283485E-01
        19   7 -1.777060E-01 -9.404477E-01  8.272693E+00  4.113462E-01 -3.946317E-02 -6.504772E-01
        19   8 -1.529943E-01  6.120243E-01  8.359143E+00 -3.697709E-01 -9.100393E-03  3.499430E-01
        19   9  2.317150E+00  3.220860E+00  9.566565E+00 -4.546253E-01  2.203072E-02 -6.654536E-01
        19  10  5.980694E-04  7.128959E-04 -8.130600E-02 -4.113961E-01 -3.610904E-04 -6.687001E-01
        19  11 -1.398070E-03 -2.206589E-03 -1.199059E-01  3.697750E-01  7.019716E-04  3.362419E-01
        19  12  4.893916E-03  6.700558E-03 -8.205812E-02  4.545829E-01  9.965712E-04 -6.753586E-01
        19  13  5.557972E-04  6.583145E-04 -8.134236E-02 -1.742177E-13  1.599233E-12 -6.465998E-01
        19  14 -1.463265E-03 -2.313688E-03 -1.199459E-01  1.509864E-13 -1.977527E-12  3.658434E-01
        19  15  4.837934E-03  6.547336E-03 -8.206776E-02  4.061855E-13  1.338720E-12 -6.382561E-01
        19  16  5.980695E-04  7.128960E-04 -8.130599E-02  4.113961E-01  3.610904E-04 -6.687001E-01
        19  17 -1.398070E-03 -2.206589E-03 -1.199059E-01 -3.697750E-01 -7.019716E-04  3.362419E-01
        19  18  4.893915E-03  6.700558E-03 -8.205812E-02 -4.545829E-01 -9.965712E-04 -6.753586E-01
        19  19  1.790662E-01  9.421763E-01 -8.433702E+00 -4.114461E-01 -4.017803E-02 -6.482064E-01
        19  20  1.503395E-01 -6.163903E-01 -8.597518E+00  3.697791E-01 -7.697299E-03  3.612567E-01
        19  21 -2.307500E+00 -3.207698E+00 -9.729475E+00  4.545406E-01  2.401508E-02 -6.465489E-01
        19  22  1.782738E-01  9.413716E-01 -8.435488E+00  1.694643E-11  3.206564E-12 -6.261075E-01
        19  23  1.495242E-01 -6.172475E-01 -8.599308E+00 -6.420912E-12  1.420508E-12  3.908564E-01
        19  24 -2.308306E+00 -3.208602E+00 -9.731234E+00 -8.223349E-11  6.389010E-12 -6.094489E-01
        19  25  1.790662E-01  9.421763E-01 -8.433702E+00  4.114461E-01  4.017803E-02 -6.482064E-01
        19  26  1.503395E-01 -6.163903E-01 -8.597518E+00 -3.697791E-01  7.697299E-03  3.612567E-01
        19  27 -2.307500E+00 -3.207698E+00 -9.729475E+00 -4.545406E-01 -2.401508E-02 -6.465489E-01
        20   1 -2.035966E+00 -2.145470E+00 -5.399230E+00 -4.786108E-02 -4.579869E-02 -5.858156E-01
        20   2  8.387465E-02 -1.362403E+00 -4.836176E+00 -7.186084E-01  1.019207E-02  2.781474E-01
        20   3 -1.550222E+00 -2.187126E+00 -5.866485E+00 -3.179131E-01  6.750669E-02 -5.809611E-01
        20   4 -2.036708E+00 -2.146258E+00 -5.400915E+00  3.030886E-11 -2.443708E-11 -5.690651E-01
        20   5  8.310928E-02 -1.363187E+00 -4.837898E+00 -1.215085E-10  1.958114E-11  2.873972E-01
        20   6 -1.550971E+00 -2.187880E+00 -5.868221E+00 -5.795745E-11 -2.512640E-11 -5.792121E-01
        20   7 -2.035966E+00 -2.145470E+00 -5.399230E+00  4.786108E-02  4.579869E-02 -5.858156E-01
        20   8  8.387465E-02 -1.362403E+00 -4.836176E+00  7.186084E-01 -1.019207E-02  2.781474E-01
        20   9 -1.550222E+00 -2.187126E+00 -5.866485E+00  3.179131E-01 -6.750669E-02 -5.809611E-01
        20  10 -4.503652E-03 -3.057383E-03 -9.570149E-02 -4.793739E-02 -6.203030E-04 -5.901762E-01
        20  11  6.430196E-04  5.798614E-05 -1.023924E-01 -7.185857E-01 -1.048746E-03  2.747062E-01
        20  12  1.790073E-03  2.511176E-03 -9.534317E-02 -3.178546E-01 -1.525350E-04 -5.835019E-01
        20  13 -4.495535E-03 -3.095590E-03 -9.563631E-02  3.535600E-13 -1.959985E-11 -5.734263E-01
        20  14  6.277825E-04  2.378645E-05 -1.023649E-01 -6.321993E-14  2.441164E-11  2.839550E-01
        20  15  1.790734E-03  2.507801E-03 -9.532917E-02  5.543768E-13 -1.957949E-11 -5.817543E-01
        20  16 -4.503652E-03 -3.057383E-03 -9.570148E-02  4.793739E-02  6.203030E-04 -5.901762E-01
        20  17  6.430200E-04  5.798606E-05 -1.023924E-01  7.185857E-01  1.048746E-03  2.747062E-01
        20  18  1.790075E-03  2.511178E-03 -9.534316E-02  3.178546E-01  1.525350E-04 -5.835019E-01
        20  19  2.026911E+00  2.139324E+00  5.208166E+00 -4.801372E-02  4.456515E-02 -5.951882E-01
        20  20 -8.251015E-02  1.362556E+00  4.631826E+00 -7.185630E-01 -1.228971E-02  2.706136E-01
        20  21  1.553793E+00  2.192141E+00  5.676265E+00 -3.177960E-01 -6.782087E-02 -5.866940E-01
        20  22  2.027669E+00  2.140036E+00  5.209981E+00 -3.001132E-11 -2.212934E-11 -5.784389E-01
        20  23 -8.177528E-02  1.363272E+00  4.633603E+00  1.211731E-10  2.138866E-11  2.798614E-01
        20  24  1.554544E+00  2.192888E+00  5.678029E+00  5.906173E-11 -2.149407E-11 -5.849477E-01
        20  25  2.026911E+00  2.139324E+00  5.208166E+00  4.801372E-02 -4.456515E-02 -5.951882E-01
        20  26 -8.251015E-02  1.362556E+00  4.631826E+00  7.185630E-01  1.228971E-02  2.706136E-01
        20  27  1.553793E+00  2.192141E+00  5.676265E+00  3.177960E-01  6.782087E-02 -5.866940E-01
